*SPEF "ieee 1481-1999"
*DESIGN "rv8_alu"
*DATE "22:14:13 Thursday September 03, 2026"
*VENDOR "The OpenROAD Project"
*PROGRAM "OpenROAD"
*VERSION "26Q1-1757-gfb8b138469"
*DESIGN_FLOW "NAME_SCOPE LOCAL" "PIN_CAP NONE"
*DIVIDER /
*DELIMITER :
*BUS_DELIMITER []
*T_UNIT 1 NS
*C_UNIT 1 PF
*R_UNIT 1 OHM
*L_UNIT 1 HENRY

*NAME_MAP
*1 _000_
*2 _001_
*3 _002_
*4 _003_
*5 _004_
*6 _005_
*7 _006_
*8 _007_
*9 _008_
*10 _009_
*11 _010_
*12 _011_
*13 _012_
*14 _013_
*15 _014_
*16 _015_
*17 _016_
*18 _017_
*19 _018_
*20 _019_
*21 _020_
*22 _021_
*23 _022_
*24 _023_
*25 _024_
*26 _025_
*27 _026_
*28 _027_
*29 _028_
*30 _029_
*31 _030_
*32 _031_
*33 _032_
*34 _033_
*35 _034_
*36 _035_
*37 _036_
*38 _037_
*39 _038_
*40 _039_
*41 _040_
*42 _041_
*43 _042_
*44 _043_
*45 _044_
*46 _045_
*47 _046_
*48 _047_
*49 _048_
*50 _049_
*51 _050_
*52 _051_
*53 _052_
*54 _053_
*55 _054_
*56 _055_
*57 _056_
*58 _057_
*59 _058_
*60 _059_
*61 _060_
*62 _061_
*63 _062_
*64 _063_
*65 _064_
*66 _065_
*67 _066_
*68 _067_
*69 _068_
*70 _069_
*71 _070_
*72 _071_
*73 _072_
*74 _073_
*75 _074_
*76 _075_
*77 _076_
*78 _077_
*79 _078_
*80 _079_
*81 _080_
*82 _081_
*83 _082_
*84 _083_
*85 _084_
*86 _085_
*87 _086_
*88 _087_
*89 _088_
*90 _089_
*91 _090_
*92 _091_
*93 _092_
*94 _093_
*95 _094_
*96 _095_
*97 _096_
*98 _097_
*99 _098_
*100 _099_
*101 _100_
*102 _101_
*103 _102_
*104 _103_
*105 _104_
*106 _105_
*107 _106_
*108 _107_
*109 _108_
*110 _109_
*111 _110_
*112 _111_
*113 _112_
*114 _113_
*115 _114_
*116 _115_
*117 _116_
*118 _117_
*119 _118_
*120 _119_
*121 _120_
*122 _121_
*123 _122_
*124 _123_
*125 _124_
*126 _125_
*127 _126_
*128 _127_
*129 _128_
*130 _129_
*131 _130_
*132 _131_
*133 _132_
*134 _133_
*135 _134_
*136 _135_
*137 _136_
*138 _137_
*139 _138_
*140 _139_
*141 _140_
*142 _141_
*143 _142_
*144 _143_
*145 _144_
*146 _145_
*147 _146_
*148 _147_
*149 _148_
*150 _149_
*151 _150_
*152 _151_
*153 _152_
*154 _153_
*155 _154_
*156 _155_
*157 _156_
*158 _157_
*159 _158_
*160 _159_
*161 _160_
*162 _161_
*163 _162_
*164 _163_
*165 _164_
*166 _165_
*167 _166_
*168 _167_
*169 _168_
*170 _169_
*171 _170_
*172 _171_
*173 _172_
*174 _173_
*175 _174_
*176 _175_
*177 _176_
*178 _177_
*179 _178_
*180 _179_
*181 _180_
*182 _181_
*183 _182_
*184 _183_
*185 _184_
*186 _185_
*187 _186_
*188 _187_
*189 _188_
*190 _189_
*191 _190_
*192 _191_
*193 _192_
*194 _193_
*195 _194_
*196 _195_
*197 _196_
*198 _197_
*199 _198_
*200 _199_
*201 _200_
*202 _201_
*203 _202_
*204 _203_
*205 _204_
*206 _205_
*207 _206_
*208 _207_
*209 _208_
*210 _209_
*211 _210_
*212 _211_
*213 _212_
*214 _213_
*215 _214_
*216 _215_
*217 _216_
*218 _217_
*219 _218_
*220 _219_
*221 _220_
*222 _221_
*223 _222_
*224 _223_
*225 _224_
*226 _225_
*227 _226_
*228 _227_
*229 _228_
*230 _229_
*231 _230_
*232 _231_
*233 _232_
*234 _233_
*235 _234_
*236 _235_
*237 _236_
*238 _237_
*239 _238_
*240 _239_
*241 _240_
*242 _241_
*243 _242_
*244 _243_
*245 _244_
*246 _245_
*247 _246_
*248 _247_
*249 _248_
*250 _249_
*251 _250_
*252 _251_
*253 _252_
*254 _253_
*255 _254_
*256 _255_
*257 _256_
*258 _257_
*259 _258_
*260 _259_
*261 _260_
*262 _261_
*263 _262_
*264 _263_
*265 _264_
*266 _265_
*267 _266_
*268 _267_
*269 _268_
*270 _269_
*271 _270_
*272 alu_op[0]
*273 alu_op[1]
*274 alu_op[2]
*275 alu_op_reg[0]
*276 alu_op_reg[1]
*277 alu_op_reg[2]
*278 carry
*279 clk
*280 negative
*281 overflow
*282 result[0]
*283 result[1]
*284 result[2]
*285 result[3]
*286 result[4]
*287 result[5]
*288 result[6]
*289 result[7]
*290 rs1[0]
*291 rs1[1]
*292 rs1[2]
*293 rs1[3]
*294 rs1[4]
*295 rs1[5]
*296 rs1[6]
*297 rs1[7]
*298 rs1_reg[0]
*299 rs1_reg[1]
*300 rs1_reg[2]
*301 rs1_reg[3]
*302 rs1_reg[4]
*303 rs1_reg[5]
*304 rs1_reg[6]
*305 rs1_reg[7]
*306 rs2[0]
*307 rs2[1]
*308 rs2[2]
*309 rs2[3]
*310 rs2[4]
*311 rs2[5]
*312 rs2[6]
*313 rs2[7]
*314 rs2_reg[0]
*315 rs2_reg[1]
*316 rs2_reg[2]
*317 rs2_reg[3]
*318 rs2_reg[4]
*319 rs2_reg[5]
*320 rs2_reg[6]
*321 rs2_reg[7]
*322 rst
*323 zero
*324 clknet_0_clk
*325 clknet_2_0__leaf_clk
*326 clknet_2_1__leaf_clk
*327 clknet_2_2__leaf_clk
*328 clknet_2_3__leaf_clk
*329 _271_
*330 _272_
*331 _273_
*332 _274_
*333 _275_
*334 _276_
*335 _277_
*336 _278_
*337 _279_
*338 _280_
*339 _281_
*340 _282_
*341 _283_
*342 _284_
*343 _285_
*344 _286_
*345 _287_
*346 _288_
*347 _289_
*348 _290_
*349 _291_
*350 _292_
*351 _293_
*352 _294_
*353 _295_
*354 _296_
*355 _297_
*356 _298_
*357 _299_
*358 _300_
*359 _301_
*360 _302_
*361 _303_
*362 _304_
*363 _305_
*364 _306_
*365 _307_
*366 _308_
*367 _309_
*368 _310_
*369 _311_
*370 _312_
*371 _313_
*372 _314_
*373 _315_
*374 _316_
*375 _317_
*376 _318_
*377 _319_
*378 _320_
*379 _321_
*380 _322_
*381 _323_
*382 _324_
*383 _325_
*384 _326_
*385 _327_
*386 _328_
*387 _329_
*388 _330_
*389 _331_
*390 _332_
*391 _333_
*392 _334_
*393 _335_
*394 _336_
*395 _337_
*396 _338_
*397 _339_
*398 _340_
*399 _341_
*400 _342_
*401 _343_
*402 _344_
*403 _345_
*404 _346_
*405 _347_
*406 _348_
*407 _349_
*408 _350_
*409 _351_
*410 _352_
*411 _353_
*412 _354_
*413 _355_
*414 _356_
*415 _357_
*416 _358_
*417 _359_
*418 _360_
*419 _361_
*420 _362_
*421 _363_
*422 _364_
*423 _365_
*424 _366_
*425 _367_
*426 _368_
*427 _369_
*428 _370_
*429 _371_
*430 _372_
*431 _373_
*432 _374_
*433 _375_
*434 _376_
*435 _377_
*436 _378_
*437 _379_
*438 _380_
*439 _381_
*440 _382_
*441 _383_
*442 _384_
*443 _385_
*444 _386_
*445 _387_
*446 _388_
*447 _389_
*448 _390_
*449 _391_
*450 _392_
*451 _393_
*452 _394_
*453 _395_
*454 _396_
*455 _397_
*456 _398_
*457 _399_
*458 _400_
*459 _401_
*460 _402_
*461 _403_
*462 _404_
*463 _405_
*464 _406_
*465 _407_
*466 _408_
*467 _409_
*468 _410_
*469 _411_
*470 _412_
*471 _413_
*472 _414_
*473 _415_
*474 _416_
*475 _417_
*476 _418_
*477 _419_
*478 _420_
*479 _421_
*480 _422_
*481 _423_
*482 _424_
*483 _425_
*484 _426_
*485 _427_
*486 _428_
*487 _429_
*488 _430_
*489 _431_
*490 _432_
*491 _433_
*492 _434_
*493 _435_
*494 _436_
*495 _437_
*496 _438_
*497 _439_
*498 _440_
*499 _441_
*500 _442_
*501 _443_
*502 _444_
*503 _445_
*504 _446_
*505 _447_
*506 _448_
*507 _449_
*508 _450_
*509 _451_
*510 _452_
*511 _453_
*512 _454_
*513 _455_
*514 _456_
*515 _457_
*516 _458_
*517 _459_
*518 _460_
*519 _461_
*520 _462_
*521 _463_
*522 _464_
*523 _465_
*524 _466_
*525 _467_
*526 _468_
*527 _469_
*528 _470_
*529 _471_
*530 _472_
*531 _473_
*532 _474_
*533 _475_
*534 _476_
*535 _477_
*536 _478_
*537 _479_
*538 _480_
*539 _481_
*540 _482_
*541 _483_
*542 _484_
*543 _485_
*544 _486_
*545 _487_
*546 _488_
*547 _489_
*548 _490_
*549 _491_
*550 _492_
*551 _493_
*552 _494_
*553 _495_
*554 _496_
*555 _497_
*556 _498_
*557 _499_
*558 _500_
*559 _501_
*560 _502_
*561 _503_
*562 _504_
*563 _505_
*564 _506_
*565 _507_
*566 _508_
*567 _509_
*568 _510_
*569 _511_
*570 _512_
*571 _513_
*572 _514_
*573 _515_
*574 _516_
*575 _517_
*576 _518_
*577 _519_
*578 _520_
*579 _521_
*580 _522_
*581 _523_
*582 _524_
*583 _525_
*584 _526_
*585 _527_
*586 _528_
*587 _529_
*588 _530_
*589 _531_
*590 _532_
*591 _533_
*592 _534_
*593 _535_
*594 _536_
*595 _537_
*596 _538_
*597 _539_
*598 _540_
*599 _541_
*600 clkbuf_0_clk
*601 clkbuf_2_0__f_clk
*602 clkbuf_2_1__f_clk
*603 clkbuf_2_2__f_clk
*604 clkbuf_2_3__f_clk
*605 clkload0
*606 clkload1
*607 clkload2

*PORTS
alu_op[0] I
alu_op[1] I
alu_op[2] I
carry O
clk I
negative O
overflow O
result[0] O
result[1] O
result[2] O
result[3] O
result[4] O
result[5] O
result[6] O
result[7] O
rs1[0] I
rs1[1] I
rs1[2] I
rs1[3] I
rs1[4] I
rs1[5] I
rs1[6] I
rs1[7] I
rs2[0] I
rs2[1] I
rs2[2] I
rs2[3] I
rs2[4] I
rs2[5] I
rs2[6] I
rs2[7] I
rst I
zero O

*D_NET *1 0.000732573
*CONN
*I *562:A I *D XOR2_X1
*I *507:A2 I *D OR2_X1
*I *508:B I *D XOR2_X1
*I *505:A2 I *D AND2_X1
*I *579:QN O *D DFF_X1
*CAP
1 *562:A 1.41918e-05
2 *507:A2 3.57259e-05
3 *508:B 5.17015e-06
4 *505:A2 4.77548e-05
5 *579:QN 8.18128e-06
6 *1:23 4.0896e-05
7 *1:21 3.36462e-05
8 *1:8 7.53905e-05
9 *505:A2 *505:A1 4.57414e-05
10 *505:A2 *564:A 0
11 *505:A2 *579:CK 2.61827e-06
12 *505:A2 *590:D 4.26902e-05
13 *505:A2 *189:12 0
14 *505:A2 *304:29 2.39679e-06
15 *505:A2 *305:19 1.65484e-05
16 *507:A2 *507:A1 1.57402e-05
17 *507:A2 *508:A 2.39679e-06
18 *507:A2 *558:B 1.53684e-05
19 *507:A2 *559:B2 1.96342e-06
20 *507:A2 *192:16 1.50966e-05
21 *508:B *508:A 7.19036e-06
22 *508:B *192:16 7.19036e-06
23 *562:A *590:D 6.68461e-05
24 *562:A *321:8 6.23503e-05
25 *1:8 *579:CK 0
26 *1:21 *590:D 9.22938e-05
27 *1:21 *305:19 8.34049e-06
28 *1:21 *321:8 6.68441e-05
*RES
1 *579:QN *1:8 10.75 
2 *1:8 *505:A2 17.5357 
3 *1:8 *1:21 5 
4 *1:21 *1:23 5 
5 *1:23 *508:B 5.75 
6 *1:23 *507:A2 10.25 
7 *1:21 *562:A 13.6429 
*END

*D_NET *2 0.000485974
*CONN
*I *514:B I *D XNOR2_X1
*I *342:A2 I *D NOR2_X1
*I *572:QN O *D DFF_X1
*CAP
1 *514:B 3.33846e-05
2 *342:A2 4.00428e-05
3 *572:QN 9.62349e-06
4 *2:8 8.30509e-05
5 *342:A2 *342:A1 5.34233e-06
6 *342:A2 *480:A 2.75346e-06
7 *342:A2 *495:A 0
8 *342:A2 *46:28 0
9 *342:A2 *241:6 3.07282e-05
10 *342:A2 *241:8 2.39679e-06
11 *514:B *496:A 1.08036e-06
12 *514:B *314:12 9.22959e-05
13 *514:B *315:14 8.805e-05
14 *2:8 *298:8 1.02238e-05
15 *2:8 *314:12 3.02351e-05
16 *2:8 *315:14 5.67661e-05
*RES
1 *572:QN *2:8 12.9643 
2 *2:8 *342:A2 14.75 
3 *2:8 *514:B 16.25 
*END

*D_NET *3 0.000491151
*CONN
*I *341:A2 I *D NAND2_X1
*I *343:B I *D XNOR2_X1
*I *573:QN O *D DFF_X1
*CAP
1 *341:A2 3.2192e-05
2 *343:B 4.2704e-05
3 *573:QN 1.84126e-05
4 *3:10 9.33085e-05
5 *341:A2 *341:A1 4.29713e-06
6 *341:A2 *344:A 1.13406e-05
7 *341:A2 *299:23 8.2465e-06
8 *343:B *343:A 8.43215e-07
9 *343:B *344:A 2.35127e-05
10 *343:B *572:D 3.40142e-05
11 *343:B *299:23 8.2465e-06
12 *3:10 *572:CK 0.00010662
13 *3:10 *298:8 0.000107413
*RES
1 *573:QN *3:10 20.6786 
2 *3:10 *343:B 11.1786 
3 *3:10 *341:A2 9.25 
*END

*D_NET *4 0.000226706
*CONN
*I *340:A2 I *D AND2_X1
*I *345:B I *D XOR2_X1
*I *574:QN O *D DFF_X1
*CAP
1 *340:A2 3.11565e-05
2 *345:B 5.11281e-05
3 *574:QN 0
4 *4:4 8.22846e-05
5 *340:A2 *340:A1 2.37137e-05
6 *340:A2 *345:A 1.28334e-05
7 *340:A2 *347:B2 4.73284e-06
8 *340:A2 *324:27 2.55331e-06
9 *345:B *345:A 1.51122e-05
10 *345:B *324:27 3.19164e-06
*RES
1 *574:QN *4:4 5 
2 *4:4 *345:B 11.3571 
3 *4:4 *340:A2 9.75 
*END

*D_NET *5 0.000443754
*CONN
*I *339:A2 I *D NOR2_X1
*I *461:B I *D XOR2_X1
*I *347:C1 I *D AOI221_X1
*I *575:QN O *D DFF_X1
*CAP
1 *339:A2 2.74496e-05
2 *461:B 3.14913e-05
3 *347:C1 3.87343e-05
4 *575:QN 0
5 *5:17 7.8412e-05
6 *5:4 5.82055e-05
7 *339:A2 *339:A1 1.7707e-05
8 *339:A2 *246:8 0
9 *347:C1 *347:A 2.16072e-07
10 *347:C1 *462:A 6.8304e-05
11 *347:C1 *246:8 1.64723e-05
12 *461:B *339:A1 5.24655e-06
13 *461:B *462:A 2.50108e-05
14 *461:B *301:32 4.68088e-05
15 *5:17 *462:A 2.96955e-05
16 *5:17 *277:10 0
*RES
1 *575:QN *5:4 5 
2 *5:4 *347:C1 11.75 
3 *5:4 *5:17 12.2857 
4 *5:17 *461:B 10.75 
5 *5:17 *339:A2 8.75 
*END

*D_NET *6 0.0005011
*CONN
*I *337:A2 I *D NAND2_X1
*I *338:B I *D XNOR2_X1
*I *576:QN O *D DFF_X1
*CAP
1 *337:A2 0.000127112
2 *338:B 5.27057e-05
3 *576:QN 0
4 *6:4 0.000179818
5 *337:A2 *337:A1 6.26794e-05
6 *337:A2 *570:CK 0
7 *337:A2 *247:20 0
8 *337:A2 *302:25 2.07819e-05
9 *337:A2 *328:35 0
10 *338:B *348:A1 4.32144e-07
11 *338:B *553:A4 0
12 *338:B *238:10 5.90251e-06
13 *338:B *247:20 0
14 *338:B *302:12 5.05929e-06
15 *338:B *302:25 4.66089e-05
*RES
1 *576:QN *6:4 5 
2 *6:4 *338:B 11.6786 
3 *6:4 *337:A2 20.75 
*END

*D_NET *7 0.000316028
*CONN
*I *350:B I *D XOR2_X1
*I *336:A2 I *D AND2_X1
*I *577:QN O *D DFF_X1
*CAP
1 *350:B 2.64696e-06
2 *336:A2 5.36837e-05
3 *577:QN 2.76805e-05
4 *7:10 8.40112e-05
5 *336:A2 *336:A1 9.65418e-06
6 *336:A2 *355:B1 6.38328e-07
7 *336:A2 *355:B2 2.75346e-06
8 *336:A2 *42:10 0
9 *336:A2 *45:14 4.01666e-06
10 *336:A2 *303:20 1.1431e-05
11 *336:A2 *303:28 2.52965e-06
12 *336:A2 *328:35 1.19839e-05
13 *350:B *303:20 1.72426e-05
14 *350:B *319:8 1.29947e-05
15 *7:10 *555:B2 0
16 *7:10 *133:14 1.78436e-06
17 *7:10 *221:18 0
18 *7:10 *303:20 3.25349e-05
19 *7:10 *319:8 2.99872e-05
20 *7:10 *322:128 0
21 *7:10 *328:20 2.16072e-07
22 *7:10 *328:35 1.0239e-05
*RES
1 *577:QN *7:10 14.2143 
2 *7:10 *336:A2 16.6786 
3 *7:10 *350:B 10.9286 
*END

*D_NET *8 0.000306409
*CONN
*I *354:B I *D XOR2_X1
*I *353:A2 I *D NAND2_X1
*I *578:QN O *D DFF_X1
*CAP
1 *354:B 4.67325e-05
2 *353:A2 4.72579e-05
3 *578:QN 0
4 *8:6 9.39904e-05
5 *353:A2 *579:CK 7.19036e-06
6 *353:A2 *43:10 1.67252e-05
7 *353:A2 *218:12 0
8 *353:A2 *304:29 0
9 *353:A2 *322:128 0
10 *353:A2 *328:8 1.2752e-06
11 *353:A2 *328:14 9.43297e-06
12 *354:B *43:10 1.24684e-05
13 *354:B *189:12 0
14 *354:B *189:30 2.08416e-06
15 *354:B *304:29 6.20856e-05
16 *354:B *304:37 2.39679e-06
17 *354:B *324:95 4.32144e-07
18 *354:B *328:8 4.33701e-06
*RES
1 *578:QN *8:6 10 
2 *8:6 *353:A2 16.0357 
3 *8:6 *354:B 16.25 
*END

*D_NET *9 0.000657111
*CONN
*I *598:D I *D DFF_X1
*I *422:ZN O *D NOR2_X1
*CAP
1 *598:D 0.000157777
2 *422:ZN 0.000157777
3 *598:D result[2] 2.96955e-05
4 *598:D result[3] 2.40655e-06
5 *598:D *460:A1 4.98241e-05
6 *598:D *594:CK 7.30645e-06
7 *598:D *596:D 7.72537e-06
8 *598:D *600:A 4.3245e-06
9 *598:D *275:18 1.83472e-05
10 *598:D *279:14 7.04409e-06
11 *598:D *284:14 6.56007e-06
12 *598:D *322:30 2.20505e-05
13 *598:D *322:45 4.70614e-05
14 *598:D *322:62 3.79549e-05
15 *598:D *324:27 2.73621e-05
16 *598:D *326:10 2.28245e-05
17 *598:D *326:42 5.10699e-05
*RES
1 *422:ZN *598:D 45.8214 
*END

*D_NET *10 0.000256006
*CONN
*I *597:D I *D DFF_X1
*I *445:ZN O *D NOR2_X1
*CAP
1 *597:D 7.40556e-05
2 *445:ZN 7.40556e-05
3 *597:D overflow 3.26648e-06
4 *597:D result[3] 1.62377e-05
5 *597:D result[5] 4.24423e-05
6 *597:D *445:A2 3.52625e-05
7 *597:D *594:CK 8.2465e-06
8 *597:D *275:16 0
9 *597:D *293:11 0
10 *597:D *312:13 0
11 *597:D *324:69 1.59582e-06
12 *597:D *324:93 8.43215e-07
*RES
1 *445:ZN *597:D 30.1429 
*END

*D_NET *11 0.000233348
*CONN
*I *596:D I *D DFF_X1
*I *460:ZN O *D NOR2_X1
*CAP
1 *596:D 7.41234e-05
2 *460:ZN 7.41234e-05
3 *596:D result[4] 1.27537e-05
4 *596:D *460:A2 1.045e-05
5 *596:D *492:A2 4.48522e-05
6 *596:D *524:A2 0
7 *596:D *570:D 0
8 *596:D *600:A 7.44305e-06
9 *596:D *293:11 0
10 *596:D *322:30 1.87637e-06
11 *598:D *596:D 7.72537e-06
*RES
1 *460:ZN *596:D 29.1429 
*END

*D_NET *12 0.000477415
*CONN
*I *595:D I *D DFF_X1
*I *478:ZN O *D NOR2_X1
*CAP
1 *595:D 0.000103397
2 *478:ZN 0.000103397
3 *595:D *460:A2 0
4 *595:D *478:A1 1.03979e-05
5 *595:D *478:A2 3.88456e-06
6 *595:D *554:A4 2.42461e-05
7 *595:D *570:D 1.72405e-05
8 *595:D *570:CK 9.62051e-07
9 *595:D *15:10 0.000207669
10 *595:D *276:12 6.22012e-06
11 *595:D *326:14 0
*RES
1 *478:ZN *595:D 35.5357 
*END

*D_NET *13 0.000113452
*CONN
*I *594:D I *D DFF_X1
*I *492:ZN O *D NOR2_X1
*CAP
1 *594:D 4.8789e-05
2 *492:ZN 4.8789e-05
3 *594:D *492:A2 0
4 *594:D *594:CK 2.75346e-06
5 *594:D *293:11 0
6 *594:D *322:45 1.31201e-05
*RES
1 *492:ZN *594:D 15.5357 
*END

*D_NET *14 0.000190993
*CONN
*I *593:D I *D DFF_X1
*I *504:ZN O *D NOR2_X1
*CAP
1 *593:D 6.33651e-05
2 *504:ZN 6.33651e-05
3 *593:D *591:CK 3.38052e-05
4 *593:D *592:D 0
5 *593:D *592:CK 0
6 *593:D *278:22 1.65872e-05
7 *593:D *308:25 1.38706e-05
*RES
1 *504:ZN *593:D 18.7143 
*END

*D_NET *15 0.00128147
*CONN
*I *556:A I *D AOI211_X1
*I *592:D I *D DFF_X1
*I *520:ZN O *D AOI21_X1
*CAP
1 *556:A 4.60209e-06
2 *592:D 6.08947e-05
3 *520:ZN 0.00019996
4 *15:10 0.000265456
5 *556:A *556:B 2.75346e-06
6 *556:A *591:D 0
7 *556:A *592:CK 7.72792e-06
8 *592:D negative 4.32319e-05
9 *592:D overflow 1.58752e-05
10 *592:D *591:D 1.01819e-05
11 *592:D *592:CK 6.06412e-06
12 *592:D *308:25 0
13 *15:10 negative 8.72584e-05
14 *15:10 overflow 4.64333e-05
15 *15:10 result[2] 1.18223e-05
16 *15:10 *478:A1 1.87637e-06
17 *15:10 *520:B1 8.26038e-06
18 *15:10 *520:B2 1.67207e-05
19 *15:10 *554:A4 1.87637e-06
20 *15:10 *570:D 9.25782e-05
21 *15:10 *275:18 1.49161e-05
22 *15:10 *276:12 7.54346e-07
23 *15:10 *284:14 5.54369e-05
24 *15:10 *322:45 2.89018e-05
25 *15:10 *322:62 8.83438e-05
26 *15:10 *322:104 1.87369e-06
27 *593:D *592:D 0
28 *595:D *15:10 0.000207669
*RES
1 *520:ZN *15:10 44.5714 
2 *15:10 *592:D 18.1429 
3 *15:10 *556:A 10.75 
*END

*D_NET *16 0.000102045
*CONN
*I *586:D I *D DFF_X1
*I *521:ZN O *D AND2_X1
*CAP
1 *586:D 2.62967e-05
2 *521:ZN 2.62967e-05
3 *586:D *528:A1 3.02351e-05
4 *586:D *578:D 0
5 *586:D *587:D 1.92163e-05
*RES
1 *521:ZN *586:D 24.3214 
*END

*D_NET *17 0.00018459
*CONN
*I *585:D I *D DFF_X1
*I *522:ZN O *D AND2_X1
*CAP
1 *585:D 6.09126e-05
2 *522:ZN 6.09126e-05
3 *585:D *218:12 1.47937e-05
4 *585:D *218:18 4.16464e-05
5 *585:D *324:93 6.32461e-06
6 *585:D *327:10 0
7 *585:D *327:23 0
*RES
1 *522:ZN *585:D 27.0357 
*END

*D_NET *18 0.00021774
*CONN
*I *584:D I *D DFF_X1
*I *523:ZN O *D AND2_X1
*CAP
1 *584:D 7.41878e-05
2 *523:ZN 7.41878e-05
3 *584:D zero 1.04526e-05
4 *584:D *524:A2 5.47944e-06
5 *584:D *575:D 0
6 *584:D *188:22 0
7 *584:D *306:23 3.50842e-05
8 *584:D *309:21 1.83486e-05
*RES
1 *523:ZN *584:D 29.6071 
*END

*D_NET *19 0.000231549
*CONN
*I *583:D I *D DFF_X1
*I *524:ZN O *D AND2_X1
*CAP
1 *583:D 8.46239e-05
2 *524:ZN 8.46239e-05
3 *583:D *527:A2 4.05691e-05
4 *583:D *532:A2 9.31044e-06
5 *583:D *582:D 8.59171e-06
6 *583:D *234:98 3.82997e-06
*RES
1 *524:ZN *583:D 31.0357 
*END

*D_NET *20 0.000174506
*CONN
*I *582:D I *D DFF_X1
*I *525:ZN O *D AND2_X1
*CAP
1 *582:D 6.5812e-05
2 *525:ZN 6.5812e-05
3 *582:D *527:A2 1.71452e-05
4 *582:D *574:D 0
5 *582:D *306:23 1.71452e-05
6 *583:D *582:D 8.59171e-06
*RES
1 *525:ZN *582:D 28.0714 
*END

*D_NET *21 0.000314406
*CONN
*I *581:D I *D DFF_X1
*I *526:ZN O *D AND2_X1
*CAP
1 *581:D 0.000122801
2 *526:ZN 0.000122801
3 *581:D *572:D 6.30637e-05
4 *581:D *573:D 5.73913e-06
5 *581:D *325:21 0
*RES
1 *526:ZN *581:D 34.1786 
*END

*D_NET *22 0.000115206
*CONN
*I *580:D I *D DFF_X1
*I *527:ZN O *D AND2_X1
*CAP
1 *580:D 3.39307e-05
2 *527:ZN 3.39307e-05
3 *580:D *527:A2 3.93453e-05
4 *580:D *306:23 7.99933e-06
*RES
1 *527:ZN *580:D 14.6786 
*END

*D_NET *23 0.000202824
*CONN
*I *578:D I *D DFF_X1
*I *528:ZN O *D AND2_X1
*CAP
1 *578:D 9.59655e-05
2 *528:ZN 9.59655e-05
3 *578:D *218:12 1.08926e-05
4 *578:D *304:8 0
5 *586:D *578:D 0
*RES
1 *528:ZN *578:D 30.4286 
*END

*D_NET *24 0.000675005
*CONN
*I *577:D I *D DFF_X1
*I *529:ZN O *D AND2_X1
*CAP
1 *577:D 0.000151691
2 *529:ZN 0.000151691
3 *577:D *552:A2 0
4 *577:D *569:D 4.80119e-06
5 *577:D *218:43 1.13477e-05
6 *577:D *221:18 0
7 *577:D *275:16 7.09583e-05
8 *577:D *281:8 3.09411e-06
9 *577:D *309:15 3.43008e-06
10 *577:D *322:128 7.72792e-06
11 *577:D *324:93 0
12 *577:D *327:10 0.000128655
13 *577:D *327:23 0.00014161
*RES
1 *529:ZN *577:D 40.6786 
*END

*D_NET *25 0.000667261
*CONN
*I *576:D I *D DFF_X1
*I *530:ZN O *D AND2_X1
*CAP
1 *576:D 0.000180695
2 *530:ZN 0.000180695
3 *576:D result[6] 0
4 *576:D *576:CK 2.99982e-05
5 *576:D *591:CK 2.30003e-05
6 *576:D *598:CK 0
7 *576:D *302:25 0
8 *576:D *306:15 9.15042e-05
9 *576:D *308:25 2.08064e-05
10 *576:D *322:9 1.41914e-05
11 *576:D *322:30 3.22985e-05
12 *576:D *326:16 9.91569e-06
13 *576:D *326:18 2.26129e-05
14 *576:D *326:20 6.15429e-05
*RES
1 *530:ZN *576:D 46.1429 
*END

*D_NET *26 0.000633612
*CONN
*I *575:D I *D DFF_X1
*I *531:ZN O *D AND2_X1
*CAP
1 *575:D 0.000150954
2 *531:ZN 0.000150954
3 *575:D *523:A1 1.2471e-05
4 *575:D *571:D 0.000118577
5 *575:D *571:CK 5.62244e-05
6 *575:D *575:CK 0.000119869
7 *575:D *234:68 1.77822e-05
8 *575:D *277:10 0
9 *575:D *309:21 6.13183e-06
10 *575:D *324:27 6.48216e-07
11 *584:D *575:D 0
*RES
1 *531:ZN *575:D 41.3572 
*END

*D_NET *27 0.000308437
*CONN
*I *574:D I *D DFF_X1
*I *532:ZN O *D AND2_X1
*CAP
1 *574:D 0.000148144
2 *532:ZN 0.000148144
3 *574:D *524:A2 0
4 *574:D *300:10 1.21491e-05
5 *574:D *301:10 0
6 *582:D *574:D 0
*RES
1 *532:ZN *574:D 35.1786 
*END

*D_NET *28 0.000650909
*CONN
*I *573:D I *D DFF_X1
*I *533:ZN O *D AND2_X1
*CAP
1 *573:D 0.000112287
2 *533:ZN 0.000112287
3 *573:D *527:A1 2.72171e-06
4 *573:D *533:A1 4.12911e-06
5 *573:D *572:D 0.000259647
6 *573:D *291:13 0
7 *573:D *306:23 0.000106874
8 *573:D *325:10 1.0164e-05
9 *573:D *325:14 2.97137e-05
10 *573:D *325:53 7.34533e-06
11 *581:D *573:D 5.73913e-06
*RES
1 *533:ZN *573:D 40.2857 
*END

*D_NET *29 0.000819871
*CONN
*I *572:D I *D DFF_X1
*I *534:ZN O *D AND2_X1
*CAP
1 *572:D 0.000183455
2 *534:ZN 0.000183455
3 *572:D *527:A2 2.52965e-06
4 *572:D *572:CK 5.64171e-06
5 *572:D *234:104 0
6 *572:D *298:8 0
7 *572:D *299:10 3.27287e-05
8 *572:D *299:23 3.40142e-05
9 *572:D *315:14 1.09662e-05
10 *572:D *325:8 1.78436e-06
11 *572:D *325:10 8.57169e-06
12 *343:B *572:D 3.40142e-05
13 *573:D *572:D 0.000259647
14 *581:D *572:D 6.30637e-05
*RES
1 *534:ZN *572:D 49.3572 
*END

*D_NET *30 0.000839754
*CONN
*I *570:D I *D DFF_X1
*I *535:ZN O *D AND2_X1
*CAP
1 *570:D 0.000189764
2 *535:ZN 0.000189764
3 *570:D negative 0.000156771
4 *570:D result[0] 0
5 *570:D *460:A2 1.10186e-05
6 *570:D *570:CK 7.81367e-06
7 *570:D *284:14 5.59765e-05
8 *570:D *297:15 0.000118827
9 *570:D *326:14 0
10 *595:D *570:D 1.72405e-05
11 *596:D *570:D 0
12 *15:10 *570:D 9.25782e-05
*RES
1 *535:ZN *570:D 48.6072 
*END

*D_NET *31 0.000193989
*CONN
*I *569:D I *D DFF_X1
*I *536:ZN O *D AND2_X1
*CAP
1 *569:D 4.59886e-05
2 *536:ZN 4.59886e-05
3 *569:D result[7] 2.52965e-06
4 *569:D *521:A2 7.19036e-06
5 *569:D *552:A2 0
6 *569:D *278:14 9.77674e-06
7 *569:D *327:10 7.77137e-05
8 *577:D *569:D 4.80119e-06
*RES
1 *536:ZN *569:D 25.75 
*END

*D_NET *32 0.000626825
*CONN
*I *591:D I *D DFF_X1
*I *556:ZN O *D AOI211_X1
*CAP
1 *591:D 0.000179163
2 *556:ZN 0.000179163
3 *591:D *530:A2 2.08753e-05
4 *591:D *535:A2 4.43198e-05
5 *591:D *556:C1 5.83614e-06
6 *591:D *234:45 3.37286e-06
7 *591:D *234:58 5.06706e-05
8 *591:D *234:64 4.67213e-05
9 *591:D *278:22 0
10 *591:D *308:25 8.6521e-05
11 *556:A *591:D 0
12 *592:D *591:D 1.01819e-05
*RES
1 *556:ZN *591:D 35.8929 
*END

*D_NET *33 0.000145605
*CONN
*I *599:D I *D DFF_X1
*I *552:ZN O *D AND2_X1
*CAP
1 *599:D 4.85915e-05
2 *552:ZN 4.85915e-05
3 *599:D *566:A2 4.07694e-05
4 *599:D *234:35 7.65279e-06
*RES
1 *552:ZN *599:D 26.0357 
*END

*D_NET *34 0.00100826
*CONN
*I *590:D I *D DFF_X1
*I *559:ZN O *D AOI21_X1
*CAP
1 *590:D 0.000338048
2 *559:ZN 2.74759e-05
3 *34:8 0.000365524
4 *590:D *335:A 0
5 *590:D *559:A 0
6 *590:D *579:D 1.80519e-05
7 *590:D *589:D 0
8 *590:D *589:CK 0
9 *590:D *192:16 1.04526e-05
10 *590:D *305:8 3.17947e-05
11 *590:D *305:19 2.08098e-06
12 *590:D *321:8 4.43868e-06
13 *590:D *322:149 0
14 *34:8 *559:B2 8.56384e-06
15 *34:8 *563:A2 0
16 *34:8 *35:12 0
17 *505:A2 *590:D 4.26902e-05
18 *562:A *590:D 6.68461e-05
19 *1:21 *590:D 9.22938e-05
*RES
1 *559:ZN *34:8 13.25 
2 *34:8 *590:D 49.6072 
*END

*D_NET *35 0.00145098
*CONN
*I *589:D I *D DFF_X1
*I *564:ZN O *D AOI21_X1
*CAP
1 *589:D 0.000240317
2 *564:ZN 9.74029e-05
3 *35:12 0.00033772
4 *589:D *335:A 0.000185381
5 *589:D *559:A 4.14059e-05
6 *589:D *559:B1 0.000132861
7 *589:D *589:CK 4.26902e-05
8 *589:D *322:149 0.000241107
9 *35:12 *563:A1 2.31014e-05
10 *35:12 *563:A2 2.11458e-06
11 *35:12 *564:A 1.87392e-05
12 *35:12 *564:B1 8.15234e-06
13 *35:12 *46:126 2.16072e-07
14 *35:12 *206:23 7.97744e-05
15 *590:D *589:D 0
16 *34:8 *35:12 0
*RES
1 *564:ZN *35:12 23.1071 
2 *35:12 *589:D 46.8929 
*END

*D_NET *36 8.14067e-05
*CONN
*I *588:D I *D DFF_X1
*I *568:ZN O *D AND2_X1
*CAP
1 *588:D 2.25259e-05
2 *568:ZN 2.25259e-05
3 *588:D *556:C1 2.13098e-05
4 *588:D *566:A2 7.72792e-06
5 *588:D *221:18 7.31712e-06
*RES
1 *568:ZN *588:D 13.25 
*END

*D_NET *37 0.000332112
*CONN
*I *587:D I *D DFF_X1
*I *565:ZN O *D AND2_X1
*CAP
1 *587:D 7.42518e-05
2 *565:ZN 7.42518e-05
3 *587:D *528:A1 6.25847e-06
4 *587:D *579:D 0.000146397
5 *587:D *234:210 3.49085e-06
6 *587:D *278:14 0
7 *587:D *328:66 8.24581e-06
8 *586:D *587:D 1.92163e-05
*RES
1 *565:ZN *587:D 31.4643 
*END

*D_NET *38 0.000630802
*CONN
*I *579:D I *D DFF_X1
*I *566:ZN O *D AND2_X1
*CAP
1 *579:D 0.000203682
2 *566:ZN 0.000203682
3 *579:D *579:CK 5.11574e-06
4 *579:D *590:CK 1.42872e-05
5 *579:D *234:10 3.65322e-06
6 *579:D *234:21 5.75004e-07
7 *579:D *234:210 5.38636e-06
8 *579:D *304:8 1.44121e-05
9 *579:D *305:8 1.55581e-05
10 *579:D *322:128 0
11 *587:D *579:D 0.000146397
12 *590:D *579:D 1.80519e-05
*RES
1 *566:ZN *579:D 46.2143 
*END

*D_NET *39 0.000220397
*CONN
*I *571:D I *D DFF_X1
*I *567:ZN O *D AND2_X1
*CAP
1 *571:D 4.22897e-05
2 *567:ZN 4.22897e-05
3 *571:D *523:A1 1.72405e-05
4 *575:D *571:D 0.000118577
*RES
1 *567:ZN *571:D 26.3571 
*END

*D_NET *40 2.04128e-05
*CONN
*I *351:A I *D INV_X1
*I *350:Z O *D XOR2_X1
*CAP
1 *351:A 9.32307e-06
2 *350:Z 9.32307e-06
3 *351:A *349:A1 0
4 *351:A *355:B1 0
5 *351:A *42:10 1.76665e-06
6 *351:A *236:8 0
*RES
1 *350:Z *351:A 10.9286 
*END

*D_NET *41 0.000142674
*CONN
*I *423:B I *D XNOR2_X1
*I *352:A I *D AOI21_X1
*I *351:ZN O *D INV_X1
*CAP
1 *423:B 2.11284e-05
2 *352:A 9.98686e-06
3 *351:ZN 2.57619e-05
4 *41:8 5.68771e-05
5 *352:A *42:10 1.21774e-06
6 *352:A *189:30 2.23871e-06
7 *352:A *236:8 8.43215e-07
8 *352:A *247:20 2.39679e-06
9 *352:A *328:35 0
10 *41:8 *42:10 1.74311e-05
11 *41:8 *189:30 4.79202e-06
*RES
1 *351:ZN *41:8 8.67857 
2 *41:8 *352:A 6.25 
3 *41:8 *423:B 7.28572 
*END

*D_NET *42 0.000275514
*CONN
*I *357:A2 I *D OR3_X1
*I *355:B1 I *D OAI21_X1
*I *352:ZN O *D AOI21_X1
*CAP
1 *357:A2 5.08532e-06
2 *355:B1 2.04043e-05
3 *352:ZN 8.37371e-05
4 *42:10 0.000109227
5 *355:B1 *355:A 7.44095e-06
6 *355:B1 *355:B2 7.16188e-07
7 *355:B1 *45:14 7.72792e-06
8 *357:A2 *355:A 8.43215e-07
9 *357:A2 *357:A3 2.75346e-06
10 *357:A2 *189:30 2.55331e-06
11 *42:10 *45:14 1.28122e-06
12 *42:10 *189:30 1.08561e-05
13 *42:10 *236:8 0
14 *42:10 *303:28 1.83411e-06
15 *42:10 *328:35 0
16 *336:A2 *355:B1 6.38328e-07
17 *336:A2 *42:10 0
18 *351:A *355:B1 0
19 *351:A *42:10 1.76665e-06
20 *352:A *42:10 1.21774e-06
21 *41:8 *42:10 1.74311e-05
*RES
1 *352:ZN *42:10 15.1071 
2 *42:10 *355:B1 8.53572 
3 *42:10 *357:A2 6.25 
*END

*D_NET *43 0.000525158
*CONN
*I *506:A1 I *D NAND2_X1
*I *509:A1 I *D AND3_X1
*I *542:B2 I *D AOI21_X1
*I *353:ZN O *D NAND2_X1
*CAP
1 *506:A1 5.51772e-05
2 *509:A1 0
3 *542:B2 0
4 *353:ZN 7.03011e-05
5 *43:19 7.88906e-05
6 *43:10 9.40145e-05
7 *506:A1 *506:A2 1.96802e-05
8 *506:A1 *543:B1 1.72426e-05
9 *506:A1 *543:B2 3.65202e-05
10 *506:A1 *558:C1 2.39679e-06
11 *506:A1 *563:A1 2.23871e-06
12 *506:A1 *46:126 5.11118e-06
13 *506:A1 *320:8 9.72832e-06
14 *43:10 *218:12 2.26304e-06
15 *43:10 *304:29 6.23163e-05
16 *43:10 *320:8 1.9725e-05
17 *43:10 *324:95 0
18 *43:10 *328:14 0
19 *43:10 *328:16 0
20 *43:19 *543:B2 1.04526e-05
21 *43:19 *320:8 9.90601e-06
22 *353:A2 *43:10 1.67252e-05
23 *354:B *43:10 1.24684e-05
*RES
1 *353:ZN *43:10 20.2857 
2 *43:10 *542:B2 10 
3 *43:10 *43:19 2.96429 
4 *43:19 *509:A1 10 
5 *43:19 *506:A1 18.3929 
*END

*D_NET *44 0.000160394
*CONN
*I *357:A3 I *D OR3_X1
*I *355:A I *D OAI21_X1
*I *354:Z O *D XOR2_X1
*CAP
1 *357:A3 5.00619e-06
2 *355:A 2.74771e-05
3 *354:Z 3.41421e-05
4 *44:8 6.66254e-05
5 *355:A *355:B2 1.91498e-06
6 *355:A *324:95 1.21774e-06
7 *357:A3 *189:30 3.58094e-06
8 *44:8 *189:30 8.74409e-06
9 *44:8 *304:37 6.48216e-07
10 *44:8 *324:95 0
11 *355:B1 *355:A 7.44095e-06
12 *357:A2 *355:A 8.43215e-07
13 *357:A2 *357:A3 2.75346e-06
*RES
1 *354:Z *44:8 9.17857 
2 *44:8 *355:A 8.53572 
3 *44:8 *357:A3 6.25 
*END

*D_NET *45 0.00058188
*CONN
*I *509:A2 I *D AND3_X1
*I *506:A2 I *D NAND2_X1
*I *542:B1 I *D AOI21_X1
*I *358:A1 I *D AND3_X1
*I *355:ZN O *D OAI21_X1
*CAP
1 *509:A2 5.08804e-06
2 *506:A2 4.92337e-05
3 *542:B1 2.39136e-05
4 *358:A1 0
5 *355:ZN 9.30449e-05
6 *45:21 0.000112865
7 *45:14 0.000127675
8 *506:A2 *509:A3 1.54082e-05
9 *506:A2 *543:B1 8.26038e-06
10 *506:A2 *558:A 4.12459e-06
11 *506:A2 *558:B 2.39679e-06
12 *506:A2 *558:C1 2.39679e-06
13 *506:A2 *192:16 5.43035e-06
14 *509:A2 *509:A3 2.39679e-06
15 *509:A2 *542:A 8.43215e-07
16 *542:B1 *509:A3 4.68749e-06
17 *542:B1 *542:A 2.39679e-06
18 *542:B1 *189:30 2.47606e-05
19 *45:14 *357:A1 4.12911e-06
20 *45:14 *358:A2 7.72537e-06
21 *45:14 *358:A3 8.58925e-06
22 *45:14 *189:30 9.83877e-06
23 *45:14 *193:22 3.55053e-06
24 *45:14 *218:12 0
25 *45:14 *319:8 0
26 *45:14 *324:93 1.52083e-06
27 *45:21 *358:A2 2.39679e-06
28 *45:21 *543:B1 9.01846e-07
29 *45:21 *189:30 1.75658e-05
30 *45:21 *193:22 8.03331e-06
31 *336:A2 *45:14 4.01666e-06
32 *355:B1 *45:14 7.72792e-06
33 *506:A1 *506:A2 1.96802e-05
34 *42:10 *45:14 1.28122e-06
*RES
1 *355:ZN *45:14 26.0357 
2 *45:14 *358:A1 5 
3 *45:14 *45:21 4.75 
4 *45:21 *542:B1 8.53572 
5 *45:21 *506:A2 12.3571 
6 *45:21 *509:A2 6.25 
*END

*D_NET *46 0.00432206
*CONN
*I *563:A1 I *D NAND3_X1
*I *558:A I *D OAI211_X1
*I *543:A I *D OAI21_X1
*I *358:A2 I *D AND3_X1
*I *444:C1 I *D AOI211_X1
*I *447:A2 I *D NAND3_X1
*I *477:C1 I *D AOI221_X1
*I *490:B2 I *D AOI21_X1
*I *515:B2 I *D AOI221_X1
*I *495:A I *D OAI21_X1
*I *356:ZN O *D NOR3_X1
*CAP
1 *563:A1 8.66502e-05
2 *558:A 5.43438e-05
3 *543:A 0
4 *358:A2 5.25398e-05
5 *444:C1 0
6 *447:A2 0
7 *477:C1 7.42128e-05
8 *490:B2 0
9 *515:B2 0.000153714
10 *495:A 0.000134743
11 *356:ZN 7.72476e-05
12 *46:126 0.000173126
13 *46:119 8.45099e-05
14 *46:104 0.000145153
15 *46:93 0.0002169
16 *46:28 0.000345101
17 *46:26 0.000223002
18 *46:20 0.000267033
19 *46:16 0.000117679
20 *46:10 0.000345129
21 *358:A2 *358:A3 1.72426e-05
22 *358:A2 *551:A 1.72405e-05
23 *358:A2 *193:22 2.52965e-06
24 *358:A2 *218:12 3.02683e-06
25 *477:C1 *448:B1 2.46305e-05
26 *477:C1 *449:A3 0
27 *477:C1 *477:C2 1.1637e-05
28 *477:C1 *76:24 1.78436e-06
29 *477:C1 *164:22 5.52965e-05
30 *477:C1 *188:12 0
31 *477:C1 *277:10 2.08098e-06
32 *477:C1 *277:116 7.94852e-06
33 *495:A *344:B1 8.23224e-05
34 *495:A *181:10 0
35 *495:A *241:8 0
36 *495:A *242:21 4.12796e-06
37 *495:A *243:6 1.66148e-05
38 *515:B2 *375:B2 8.08825e-05
39 *515:B2 *479:B2 0
40 *515:B2 *480:A 3.66854e-05
41 *515:B2 *515:B1 0.000357802
42 *515:B2 *65:12 0
43 *515:B2 *298:41 4.52612e-06
44 *515:B2 *299:40 0.000124407
45 *515:B2 *315:25 1.3143e-06
46 *515:B2 *315:40 2.61155e-05
47 *515:B2 *315:53 1.21774e-06
48 *515:B2 *316:8 0
49 *558:A *543:B1 0
50 *558:A *543:B2 9.56336e-06
51 *558:A *558:B 2.39679e-06
52 *558:A *558:C1 1.55671e-05
53 *558:A *564:A 1.01343e-05
54 *558:A *192:16 6.0887e-06
55 *558:A *320:8 0
56 *563:A1 *558:C1 0
57 *563:A1 *562:B 0
58 *563:A1 *563:A2 1.21774e-06
59 *563:A1 *564:A 1.00295e-05
60 *563:A1 *564:B1 2.38892e-05
61 *563:A1 *564:B2 1.69579e-05
62 *563:A1 *321:8 1.33704e-05
63 *46:10 *510:B 3.82563e-06
64 *46:10 *69:34 1.29135e-05
65 *46:10 *76:65 1.2861e-05
66 *46:10 *146:14 2.22714e-05
67 *46:10 *276:12 3.49085e-06
68 *46:10 *277:24 0
69 *46:10 *277:39 0
70 *46:16 *447:A1 1.80259e-05
71 *46:16 *459:A1 1.17178e-05
72 *46:16 *460:A2 3.74445e-05
73 *46:16 *478:A2 5.58686e-05
74 *46:16 *553:A1 1.85634e-05
75 *46:16 *553:A4 2.55029e-06
76 *46:16 *146:14 8.58925e-06
77 *46:16 *177:22 6.74733e-06
78 *46:16 *188:22 1.86809e-06
79 *46:16 *276:12 1.62366e-05
80 *46:16 *302:36 7.64942e-06
81 *46:20 *447:A1 2.75346e-06
82 *46:20 *177:22 7.84765e-06
83 *46:20 *188:22 2.08416e-06
84 *46:20 *238:10 0
85 *46:26 *339:A1 2.42644e-05
86 *46:26 *346:A 0
87 *46:26 *447:A3 1.50869e-06
88 *46:26 *462:A 0
89 *46:26 *462:B 1.46129e-05
90 *46:26 *477:C2 6.71655e-05
91 *46:26 *479:A 0
92 *46:26 *490:B1 1.21774e-06
93 *46:26 *177:22 0
94 *46:26 *188:12 0
95 *46:26 *188:22 9.5257e-06
96 *46:26 *238:10 8.26038e-06
97 *46:26 *246:8 0
98 *46:26 *277:10 2.08098e-06
99 *46:26 *301:23 1.40196e-06
100 *46:26 *301:32 4.29713e-06
101 *46:26 *302:12 0
102 *46:28 *479:B2 2.23871e-06
103 *46:28 *480:A 0
104 *46:28 *490:B1 3.09411e-06
105 *46:28 *243:6 1.40478e-05
106 *46:28 *243:19 9.57492e-07
107 *46:93 *398:A1 5.41504e-06
108 *46:93 *421:A2 7.06531e-06
109 *46:93 *422:A2 8.27138e-06
110 *46:93 *425:A2 0
111 *46:93 *444:A 2.43548e-06
112 *46:93 *444:B 8.26038e-06
113 *46:93 *444:C2 6.55739e-06
114 *46:93 *474:A3 5.52959e-06
115 *46:93 *510:B 3.45517e-05
116 *46:93 *554:A2 3.56749e-05
117 *46:93 *48:8 4.6613e-07
118 *46:93 *76:65 0
119 *46:93 *88:8 3.46596e-06
120 *46:93 *109:10 3.07768e-05
121 *46:93 *110:8 4.5132e-06
122 *46:93 *133:14 2.83315e-05
123 *46:93 *189:30 1.51952e-05
124 *46:93 *275:18 0
125 *46:93 *276:12 3.93453e-05
126 *46:93 *277:20 1.08719e-05
127 *46:104 *426:A2 2.55331e-06
128 *46:104 *444:B 2.75346e-06
129 *46:104 *551:A 1.66988e-05
130 *46:104 *48:8 1.04928e-05
131 *46:104 *76:84 0
132 *46:119 *543:B1 7.72792e-06
133 *46:119 *550:B1 0
134 *46:119 *551:A 3.95236e-05
135 *46:119 *551:C2 0
136 *46:119 *48:8 8.43215e-07
137 *46:119 *193:22 0
138 *46:126 *543:B2 2.11458e-06
139 *46:126 *550:B1 0
140 *46:126 *206:23 0
141 *342:A2 *495:A 0
142 *342:A2 *46:28 0
143 *506:A1 *563:A1 2.23871e-06
144 *506:A1 *46:126 5.11118e-06
145 *506:A2 *558:A 4.12459e-06
146 *35:12 *563:A1 2.31014e-05
147 *35:12 *46:126 2.16072e-07
148 *45:14 *358:A2 7.72537e-06
149 *45:21 *358:A2 2.39679e-06
*RES
1 *356:ZN *46:10 20.4286 
2 *46:10 *46:16 19.25 
3 *46:16 *46:20 8.25 
4 *46:20 *46:26 26.5714 
5 *46:26 *46:28 6.75 
6 *46:28 *495:A 30.6071 
7 *46:28 *515:B2 45 
8 *46:26 *490:B2 5 
9 *46:20 *477:C1 20.0357 
10 *46:16 *447:A2 5 
11 *46:10 *46:93 39.9643 
12 *46:93 *444:C1 5 
13 *46:93 *46:104 10.1786 
14 *46:104 *358:A2 15.75 
15 *46:104 *46:119 11.25 
16 *46:119 *543:A 5 
17 *46:119 *46:126 3.75 
18 *46:126 *558:A 21.9286 
19 *46:126 *563:A1 25.8929 
*END

*D_NET *47 9.19122e-05
*CONN
*I *358:A3 I *D AND3_X1
*I *357:ZN O *D OR3_X1
*CAP
1 *358:A3 2.80173e-05
2 *357:ZN 2.80173e-05
3 *358:A3 *218:12 1.00458e-05
4 *358:A2 *358:A3 1.72426e-05
5 *45:14 *358:A3 8.58925e-06
*RES
1 *357:ZN *358:A3 23.6429 
*END

*D_NET *48 0.000320093
*CONN
*I *554:A1 I *D NOR4_X1
*I *421:A1 I *D NOR3_X1
*I *358:ZN O *D AND3_X1
*CAP
1 *554:A1 0
2 *421:A1 1.63064e-05
3 *358:ZN 8.57551e-05
4 *48:8 0.000102061
5 *421:A1 *421:A2 3.49085e-06
6 *421:A1 *554:A2 8.29353e-06
7 *421:A1 *554:A3 1.66988e-05
8 *421:A1 *133:14 1.3143e-06
9 *48:8 *421:A2 2.25089e-06
10 *48:8 *444:C2 4.41389e-05
11 *48:8 *554:A2 1.21774e-06
12 *48:8 *554:A3 4.79358e-06
13 *48:8 *110:8 2.39679e-06
14 *48:8 *193:22 1.95724e-05
15 *46:93 *48:8 4.6613e-07
16 *46:104 *48:8 1.04928e-05
17 *46:119 *48:8 8.43215e-07
*RES
1 *358:ZN *48:8 16.3571 
2 *48:8 *421:A1 17.2857 
3 *48:8 *554:A1 5 
*END

*D_NET *49 0.000950456
*CONN
*I *540:A1 I *D NAND2_X1
*I *404:C1 I *D OAI221_X1
*I *361:A1 I *D AND2_X1
*I *359:ZN O *D NAND2_X1
*CAP
1 *540:A1 9.42868e-05
2 *404:C1 0.00013969
3 *361:A1 2.4156e-05
4 *359:ZN 0
5 *49:21 0.000269445
6 *49:4 5.96241e-05
7 *361:A1 *359:A2 5.46432e-05
8 *361:A1 *403:A2 2.76095e-05
9 *361:A1 *50:8 2.2287e-05
10 *361:A1 *304:50 5.11191e-06
11 *404:C1 *404:A 9.02997e-06
12 *404:C1 *404:C2 8.43215e-07
13 *404:C1 *439:A2 3.09143e-06
14 *404:C1 *441:A1 1.52083e-06
15 *404:C1 *469:A2 0
16 *404:C1 *548:A1 8.50301e-06
17 *404:C1 *548:A2 2.35379e-05
18 *404:C1 *548:B1 5.43491e-06
19 *404:C1 *549:A1 1.02269e-05
20 *404:C1 *549:A2 1.43238e-06
21 *404:C1 *549:A3 3.09411e-06
22 *404:C1 *84:14 4.93302e-05
23 *404:C1 *109:10 0
24 *404:C1 *125:12 3.82563e-06
25 *404:C1 *128:8 0
26 *540:A1 *359:A2 0
27 *540:A1 *403:A2 8.72084e-07
28 *540:A1 *77:44 4.24402e-05
29 *540:A1 *303:56 2.96901e-05
30 *540:A1 *303:69 4.36e-05
31 *540:A1 *304:37 0
32 *540:A1 *304:50 0
33 *49:21 *439:A1 2.23871e-06
34 *49:21 *439:A2 8.43215e-07
35 *49:21 *548:B1 7.66449e-06
36 *49:21 *305:81 6.38328e-06
*RES
1 *359:ZN *49:4 5 
2 *49:4 *361:A1 20.8929 
3 *49:4 *49:21 4.67857 
4 *49:21 *404:C1 32.2857 
5 *49:21 *540:A1 27.4643 
*END

*D_NET *50 0.000206533
*CONN
*I *403:A1 I *D AOI22_X1
*I *361:A2 I *D AND2_X1
*I *360:ZN O *D OR2_X1
*CAP
1 *403:A1 2.4369e-05
2 *361:A2 0
3 *360:ZN 3.76246e-05
4 *50:8 6.19936e-05
5 *403:A1 *403:B1 3.65322e-06
6 *403:A1 *548:B1 1.32348e-05
7 *50:8 *403:A2 1.87637e-06
8 *50:8 *404:A 2.86475e-06
9 *50:8 *548:B1 3.86294e-05
10 *361:A1 *50:8 2.2287e-05
*RES
1 *360:ZN *50:8 10.3571 
2 *50:8 *361:A2 5 
3 *50:8 *403:A1 9.28572 
*END

*D_NET *51 0.000522166
*CONN
*I *384:A1 I *D OR3_X1
*I *383:A I *D OAI21_X1
*I *403:B2 I *D AOI22_X1
*I *361:ZN O *D AND2_X1
*CAP
1 *384:A1 6.71979e-06
2 *383:A 2.30081e-05
3 *403:B2 0
4 *361:ZN 5.00643e-05
5 *51:19 5.70726e-05
6 *51:8 7.7409e-05
7 *383:A *383:B1 9.24246e-06
8 *383:A *384:A3 8.00929e-05
9 *383:A *388:A1 2.75346e-06
10 *383:A *388:A2 5.46432e-05
11 *383:A *76:91 6.82202e-07
12 *383:A *207:25 3.65322e-06
13 *384:A1 *384:A2 2.39679e-06
14 *384:A1 *384:A3 1.68643e-06
15 *384:A1 *92:85 2.52965e-06
16 *51:8 *403:B1 2.3767e-06
17 *51:8 *304:50 3.20789e-05
18 *51:8 *305:81 0
19 *51:8 *320:8 2.72171e-06
20 *51:19 *384:A3 2.96955e-05
21 *51:19 *388:A2 5.01473e-05
22 *51:19 *403:B1 2.52514e-05
23 *51:19 *320:8 7.9406e-06
*RES
1 *361:ZN *51:8 15.6786 
2 *51:8 *403:B2 10 
3 *51:8 *51:19 5.75 
4 *51:19 *383:A 15.0714 
5 *51:19 *384:A1 10.75 
*END

*D_NET *52 0.000572499
*CONN
*I *442:C1 I *D AOI221_X1
*I *384:A2 I *D OR3_X1
*I *383:B1 I *D OAI21_X1
*I *362:ZN O *D AND2_X1
*CAP
1 *442:C1 7.54016e-06
2 *384:A2 6.21028e-06
3 *383:B1 3.51983e-05
4 *362:ZN 3.31531e-05
5 *52:10 0.000119199
6 *52:8 0.000118484
7 *383:B1 *384:A3 3.01743e-06
8 *383:B1 *388:A2 6.76378e-05
9 *383:B1 *320:8 3.91587e-05
10 *384:A2 *384:A3 2.39679e-06
11 *384:A2 *92:85 2.16072e-07
12 *52:8 *396:A1 0
13 *52:8 *396:A2 0
14 *52:8 *442:A 4.87096e-06
15 *52:8 *548:B2 2.39679e-06
16 *52:8 *77:44 9.9356e-06
17 *52:8 *86:92 4.10287e-05
18 *52:10 *360:A1 0
19 *52:10 *403:A2 0
20 *52:10 *548:B2 4.79358e-06
21 *52:10 *77:44 1.73362e-05
22 *52:10 *78:24 4.57706e-05
23 *52:10 *92:85 2.51631e-06
24 *52:10 *304:50 0
25 *383:A *383:B1 9.24246e-06
26 *384:A1 *384:A2 2.39679e-06
*RES
1 *362:ZN *52:8 9.67857 
2 *52:8 *52:10 9.75 
3 *52:10 *383:B1 21.4286 
4 *52:10 *384:A2 5.75 
5 *52:8 *442:C1 5.92857 
*END

*D_NET *53 0.001106
*CONN
*I *382:B2 I *D AOI21_X1
*I *424:A1 I *D NAND3_X1
*I *451:A1 I *D OR2_X1
*I *452:B2 I *D AOI21_X1
*I *363:ZN O *D NAND2_X1
*CAP
1 *382:B2 5.26834e-05
2 *424:A1 1.45174e-05
3 *451:A1 2.11655e-05
4 *452:B2 0
5 *363:ZN 1.71626e-05
6 *53:32 0.000193816
7 *53:15 0.00016378
8 *53:6 3.31614e-05
9 *382:B2 *382:A 1.19839e-05
10 *382:B2 *382:B1 1.68777e-05
11 *382:B2 *426:A1 3.02351e-05
12 *382:B2 *444:B 5.46411e-05
13 *382:B2 *69:34 7.16188e-07
14 *382:B2 *72:27 4.16195e-06
15 *382:B2 *90:76 5.49412e-05
16 *424:A1 *382:B1 1.76665e-06
17 *451:A1 *451:A2 1.32323e-05
18 *451:A1 *453:C1 3.60384e-06
19 *451:A1 *453:C2 4.11048e-05
20 *451:A1 *90:22 1.32323e-05
21 *451:A1 *90:30 2.75346e-06
22 *451:A1 *92:24 5.64879e-06
23 *53:6 *363:A1 3.526e-05
24 *53:6 *453:C1 3.65322e-06
25 *53:6 *86:28 8.26038e-06
26 *53:6 *90:30 4.04707e-06
27 *53:6 *302:55 2.39679e-06
28 *53:15 *363:A1 0
29 *53:15 *86:28 0
30 *53:15 *92:14 1.26998e-05
31 *53:15 *302:55 3.68327e-06
32 *53:32 *334:A 5.05375e-05
33 *53:32 *397:A3 3.18741e-05
34 *53:32 *69:34 1.59628e-05
35 *53:32 *75:14 7.72537e-06
36 *53:32 *90:22 4.66703e-05
37 *53:32 *90:76 8.96171e-05
38 *53:32 *92:14 3.31225e-05
39 *53:32 *233:8 0
40 *53:32 *276:57 7.19036e-06
41 *53:32 *302:55 2.11458e-06
*RES
1 *363:ZN *53:6 8.25 
2 *53:6 *452:B2 5 
3 *53:6 *53:15 2.17857 
4 *53:15 *451:A1 18.5357 
5 *53:15 *53:32 20.1786 
6 *53:32 *424:A1 6.60714 
7 *53:32 *382:B2 23.7143 
*END

*D_NET *54 0.000277122
*CONN
*I *453:C2 I *D OAI211_X1
*I *364:ZN O *D NOR2_X1
*CAP
1 *453:C2 5.02829e-05
2 *364:ZN 5.02829e-05
3 *453:C2 *453:B 3.48838e-06
4 *453:C2 *453:C1 2.59484e-06
5 *453:C2 *75:20 7.9624e-06
6 *453:C2 *92:24 4.16195e-06
7 *453:C2 *103:10 0
8 *453:C2 *302:71 0.000117243
9 *451:A1 *453:C2 4.11048e-05
*RES
1 *364:ZN *453:C2 28.1071 
*END

*D_NET *55 0.000240158
*CONN
*I *379:A1 I *D OR3_X1
*I *448:A I *D OAI21_X1
*I *365:ZN O *D XNOR2_X1
*CAP
1 *379:A1 2.30956e-05
2 *448:A 4.06624e-05
3 *365:ZN 0
4 *55:4 6.3758e-05
5 *379:A1 *379:A2 2.75346e-06
6 *379:A1 *379:A3 9.51045e-06
7 *379:A1 *76:65 2.61827e-06
8 *448:A *379:A3 1.05929e-06
9 *448:A *448:B1 8.43215e-07
10 *448:A *449:A3 2.39679e-06
11 *448:A *459:A2 4.18985e-05
12 *448:A *474:A3 2.88019e-05
13 *448:A *76:65 1.95641e-05
14 *448:A *277:20 3.1962e-06
*RES
1 *365:ZN *55:4 5 
2 *55:4 *448:A 21.2857 
3 *55:4 *379:A1 7.85714 
*END

*D_NET *56 0.000624655
*CONN
*I *475:C1 I *D AOI221_X1
*I *463:A1 I *D NOR2_X1
*I *378:A I *D AOI211_X1
*I *366:ZN O *D AND2_X1
*CAP
1 *475:C1 4.98362e-05
2 *463:A1 0
3 *378:A 3.77303e-05
4 *366:ZN 1.66389e-05
5 *56:21 6.76123e-05
6 *56:8 7.21453e-05
7 *378:A *378:B 2.75346e-06
8 *378:A *464:A 1.57429e-05
9 *378:A *464:B 1.25189e-05
10 *378:A *486:B1 6.0887e-06
11 *378:A *92:26 1.98621e-05
12 *475:C1 *463:A2 2.52965e-06
13 *475:C1 *475:B1 4.15369e-06
14 *475:C1 *86:28 1.21774e-06
15 *475:C1 *86:42 4.78054e-06
16 *475:C1 *90:30 4.55329e-05
17 *475:C1 *92:26 0
18 *56:8 *57:8 7.98387e-05
19 *56:8 *301:54 7.98387e-05
20 *56:21 *463:A2 3.74027e-05
21 *56:21 *57:8 4.49583e-06
22 *56:21 *163:12 0
23 *56:21 *301:54 6.39357e-05
*RES
1 *366:ZN *56:8 14.3214 
2 *56:8 *378:A 15.75 
3 *56:8 *56:21 8.64286 
4 *56:21 *463:A1 5 
5 *56:21 *475:C1 11.6071 
*END

*D_NET *57 0.00107108
*CONN
*I *448:B1 I *D OAI21_X1
*I *463:A2 I *D NOR2_X1
*I *379:A2 I *D OR3_X1
*I *474:A2 I *D NOR3_X1
*I *367:ZN O *D NOR2_X1
*CAP
1 *448:B1 9.13407e-05
2 *463:A2 1.68824e-05
3 *379:A2 9.12396e-05
4 *474:A2 0
5 *367:ZN 0
6 *57:18 0.000131692
7 *57:8 0.000106133
8 *57:4 0.000140139
9 *379:A2 *363:A2 2.14856e-06
10 *379:A2 *379:A3 2.63983e-05
11 *379:A2 *449:A1 1.25722e-05
12 *379:A2 *474:A1 7.72537e-06
13 *379:A2 *474:A3 7.92205e-05
14 *379:A2 *76:65 1.59582e-06
15 *379:A2 *92:24 1.78467e-05
16 *379:A2 *318:21 5.52692e-06
17 *448:B1 *449:A3 3.38111e-06
18 *448:B1 *477:C2 6.87378e-06
19 *448:B1 *68:6 0
20 *448:B1 *76:24 3.23723e-07
21 *448:B1 *163:12 1.87637e-06
22 *448:B1 *164:22 5.24251e-06
23 *448:B1 *177:22 1.32212e-05
24 *448:B1 *277:20 1.84625e-05
25 *463:A2 *464:B 1.55619e-05
26 *463:A2 *92:26 7.19036e-06
27 *57:8 *366:A2 4.29819e-05
28 *57:8 *464:B 6.32461e-06
29 *57:8 *477:B1 6.84175e-06
30 *57:8 *301:54 8.34049e-06
31 *57:18 *464:B 7.72537e-06
32 *57:18 *474:A1 2.75346e-06
33 *57:18 *474:A3 2.75346e-06
34 *57:18 *477:B1 2.90423e-05
35 *57:18 *68:6 8.32605e-06
36 *57:18 *92:26 9.01846e-07
37 *379:A1 *379:A2 2.75346e-06
38 *448:A *448:B1 8.43215e-07
39 *475:C1 *463:A2 2.52965e-06
40 *477:C1 *448:B1 2.46305e-05
41 *56:8 *57:8 7.98387e-05
42 *56:21 *463:A2 3.74027e-05
43 *56:21 *57:8 4.49583e-06
*RES
1 *367:ZN *57:4 5 
2 *57:4 *57:8 12.7143 
3 *57:8 *57:18 10.6786 
4 *57:18 *474:A2 5 
5 *57:18 *379:A2 20.2857 
6 *57:8 *463:A2 13.0357 
7 *57:4 *448:B1 16.8571 
*END

*D_NET *58 0.000353763
*CONN
*I *378:B I *D AOI211_X1
*I *486:A1 I *D AOI22_X1
*I *377:A I *D AOI21_X1
*I *368:ZN O *D AND2_X1
*CAP
1 *378:B 1.93459e-05
2 *486:A1 2.31682e-05
3 *377:A 1.35345e-05
4 *368:ZN 8.71307e-06
5 *58:10 5.16787e-05
6 *58:6 4.3035e-05
7 *377:A *491:A1 4.16464e-05
8 *377:A *316:19 6.50581e-06
9 *377:A *316:30 3.49085e-06
10 *378:B *368:A1 1.03048e-06
11 *378:B *378:C1 2.90423e-05
12 *378:B *486:B1 7.59759e-06
13 *486:A1 *486:A2 2.39679e-06
14 *486:A1 *486:B1 2.52965e-06
15 *486:A1 *487:A1 1.68643e-06
16 *486:A1 *491:A1 6.70982e-05
17 *486:A1 *316:30 1.50871e-05
18 *58:10 *368:A1 5.62375e-06
19 *58:10 *368:A2 2.39679e-06
20 *58:10 *486:B1 1.18589e-06
21 *58:10 *486:B2 4.21607e-06
22 *378:A *378:B 2.75346e-06
*RES
1 *368:ZN *58:6 5.92857 
2 *58:6 *58:10 6.75 
3 *58:10 *377:A 12.2857 
4 *58:10 *486:A1 14.3929 
5 *58:6 *378:B 8.25 
*END

*D_NET *59 0.000243581
*CONN
*I *493:A1 I *D AOI22_X1
*I *374:A1 I *D NOR2_X1
*I *369:ZN O *D AND2_X1
*CAP
1 *493:A1 3.46581e-05
2 *374:A1 9.2031e-06
3 *369:ZN 2.60962e-05
4 *59:6 6.99575e-05
5 *374:A1 *503:A2 0
6 *374:A1 *515:C2 9.76549e-06
7 *493:A1 *486:A2 1.66988e-05
8 *493:A1 *515:C2 1.19839e-05
9 *493:A1 *64:20 9.08411e-06
10 *493:A1 *86:44 1.98902e-05
11 *493:A1 *90:43 2.94435e-05
12 *493:A1 *300:75 2.08098e-06
13 *59:6 *503:A2 3.53331e-06
14 *59:6 *515:C1 0
15 *59:6 *64:20 1.18547e-06
*RES
1 *369:ZN *59:6 7.96429 
2 *59:6 *374:A1 6 
3 *59:6 *493:A1 20.1071 
*END

*D_NET *60 0.000154898
*CONN
*I *375:A I *D OAI21_X1
*I *370:ZN O *D NAND2_X1
*CAP
1 *375:A 1.32404e-05
2 *370:ZN 1.32404e-05
3 *375:A *298:30 4.80119e-06
4 *375:A *299:53 5.46453e-05
5 *375:A *314:12 6.89712e-05
*RES
1 *370:ZN *375:A 23.6429 
*END

*D_NET *61 0.000993343
*CONN
*I *428:A I *D AOI21_X1
*I *499:A I *D XNOR2_X1
*I *511:A1 I *D NOR2_X1
*I *515:C1 I *D AOI221_X1
*I *371:ZN O *D AND2_X1
*CAP
1 *428:A 2.63724e-05
2 *499:A 2.92188e-05
3 *511:A1 4.31381e-05
4 *515:C1 4.35653e-06
5 *371:ZN 1.94407e-05
6 *61:16 9.39429e-05
7 *61:10 0.000136602
8 *61:8 0.000106748
9 *428:A *230:16 1.72426e-05
10 *428:A *299:96 4.12796e-06
11 *428:A *299:109 4.16195e-06
12 *428:A *315:78 2.08098e-06
13 *499:A *494:C1 3.93453e-05
14 *499:A *503:A2 1.68643e-06
15 *499:A *106:25 9.43527e-06
16 *511:A1 *503:A2 5.08941e-05
17 *511:A1 *512:B2 2.70833e-06
18 *511:A1 *515:C2 7.16188e-07
19 *511:A1 *315:40 0
20 *61:8 *299:96 1.26998e-05
21 *61:8 *314:46 4.00561e-05
22 *61:8 *315:70 1.19901e-05
23 *61:10 *512:B1 6.28482e-05
24 *61:10 *517:B1 2.26306e-06
25 *61:10 *90:43 2.41311e-05
26 *61:10 *299:81 9.55059e-06
27 *61:10 *299:96 3.43549e-05
28 *61:10 *300:75 2.43266e-06
29 *61:10 *315:78 1.06678e-05
30 *61:16 *369:A2 7.72792e-06
31 *61:16 *494:C1 4.16485e-05
32 *61:16 *503:A2 5.99488e-05
33 *61:16 *512:B1 1.72426e-05
34 *61:16 *515:C2 2.14856e-06
35 *61:16 *90:43 4.43868e-06
36 *61:16 *299:81 1.33704e-05
37 *61:16 *315:61 4.36039e-05
38 *59:6 *515:C1 0
*RES
1 *371:ZN *61:8 13.75 
2 *61:8 *61:10 9.75 
3 *61:10 *61:16 13.7143 
4 *61:16 *515:C1 5.92857 
5 *61:16 *511:A1 10.6786 
6 *61:10 *499:A 14.25 
7 *61:8 *428:A 12.9643 
*END

*D_NET *62 0.000111715
*CONN
*I *375:B1 I *D OAI21_X1
*I *372:ZN O *D NAND2_X1
*CAP
1 *375:B1 5.27936e-05
2 *372:ZN 5.27936e-05
3 *375:B1 *373:A2 8.43215e-07
4 *375:B1 *375:B2 8.43215e-07
5 *375:B1 *63:8 1.7326e-06
6 *375:B1 *299:70 2.70833e-06
7 *375:B1 *315:14 0
*RES
1 *372:ZN *375:B1 15.5714 
*END

*D_NET *63 0.00109959
*CONN
*I *494:C1 I *D OAI221_X1
*I *374:A2 I *D NOR2_X1
*I *375:B2 I *D OAI21_X1
*I *373:ZN O *D NOR2_X1
*CAP
1 *494:C1 6.65575e-05
2 *374:A2 0
3 *375:B2 4.92283e-05
4 *373:ZN 2.06756e-05
5 *63:31 0.00016775
6 *63:8 0.000171096
7 *375:B2 *370:A1 7.19036e-06
8 *375:B2 *65:10 2.30003e-05
9 *375:B2 *299:40 2.2287e-05
10 *375:B2 *315:25 1.09659e-05
11 *375:B2 *315:40 5.86754e-06
12 *494:C1 *503:A2 2.9536e-05
13 *494:C1 *90:43 0.000101266
14 *494:C1 *106:25 3.19164e-07
15 *494:C1 *299:81 1.3143e-06
16 *494:C1 *315:53 2.24234e-05
17 *63:8 *373:A2 8.43215e-07
18 *63:8 *65:10 0
19 *63:8 *299:70 2.13105e-05
20 *63:31 *368:A2 0
21 *63:31 *485:B1 3.19164e-07
22 *63:31 *487:A1 8.23035e-06
23 *63:31 *487:A2 8.26038e-06
24 *63:31 *491:A1 9.55616e-06
25 *63:31 *65:10 0
26 *63:31 *90:30 3.691e-06
27 *63:31 *90:43 2.89349e-05
28 *63:31 *299:70 0.000107951
29 *63:31 *315:53 4.24402e-05
30 *63:31 *316:30 4.12796e-06
31 *375:B1 *375:B2 8.43215e-07
32 *375:B1 *63:8 1.7326e-06
33 *499:A *494:C1 3.93453e-05
34 *515:B2 *375:B2 8.08825e-05
35 *61:16 *494:C1 4.16485e-05
*RES
1 *373:ZN *63:8 7.67857 
2 *63:8 *375:B2 22.5714 
3 *63:8 *63:31 20.4643 
4 *63:31 *374:A2 10 
5 *63:31 *494:C1 21.8571 
*END

*D_NET *64 0.000693631
*CONN
*I *499:B I *D XNOR2_X1
*I *493:B2 I *D AOI22_X1
*I *374:ZN O *D NOR2_X1
*CAP
1 *499:B 5.76067e-05
2 *493:B2 0
3 *374:ZN 9.44368e-05
4 *64:20 0.000152044
5 *499:B *491:A2 2.2011e-05
6 *499:B *493:B1 2.44242e-05
7 *499:B *494:A 2.3767e-06
8 *499:B *494:B1 5.46453e-05
9 *499:B *494:C2 6.81816e-05
10 *499:B *503:A2 4.32298e-05
11 *499:B *511:A2 2.43548e-06
12 *499:B *513:A2 9.55318e-06
13 *499:B *106:25 3.09411e-06
14 *499:B *300:75 1.90574e-06
15 *64:20 *493:B1 2.75346e-06
16 *64:20 *511:A2 2.43548e-06
17 *64:20 *513:A2 2.61041e-05
18 *64:20 *513:A3 1.52648e-05
19 *64:20 *515:C2 1.30516e-05
20 *64:20 *86:44 3.23723e-07
21 *64:20 *315:53 1.73125e-05
22 *64:20 *315:61 2.52965e-06
23 *64:20 *316:53 6.7642e-05
24 *493:A1 *64:20 9.08411e-06
25 *59:6 *64:20 1.18547e-06
*RES
1 *374:ZN *64:20 28.25 
2 *64:20 *493:B2 5 
3 *64:20 *499:B 25.5714 
*END

*D_NET *65 0.00115126
*CONN
*I *377:B1 I *D AOI21_X1
*I *378:C1 I *D AOI211_X1
*I *480:B2 I *D AOI21_X1
*I *479:B2 I *D OAI21_X1
*I *375:ZN O *D OAI21_X1
*CAP
1 *377:B1 0
2 *378:C1 5.80805e-05
3 *480:B2 3.23953e-05
4 *479:B2 4.7015e-05
5 *375:ZN 0.000102268
6 *65:38 7.77449e-05
7 *65:12 0.000124737
8 *65:10 0.000167259
9 *378:C1 *368:A1 8.08864e-06
10 *378:C1 *376:A 0
11 *378:C1 *377:B2 1.25189e-05
12 *378:C1 *378:C2 1.14337e-05
13 *378:C1 *464:A 7.72537e-06
14 *378:C1 *486:B2 1.04526e-05
15 *378:C1 *66:44 1.07633e-05
16 *378:C1 *300:47 4.11048e-05
17 *378:C1 *300:60 1.2203e-05
18 *479:B2 *479:A 1.26998e-05
19 *479:B2 *480:A 8.43215e-07
20 *479:B2 *490:B1 3.09411e-06
21 *479:B2 *316:8 6.78899e-05
22 *480:B2 *342:A1 8.43215e-07
23 *480:B2 *480:A 9.02997e-06
24 *480:B2 *480:B1 2.11815e-06
25 *480:B2 *490:A 3.15197e-05
26 *65:10 *373:A2 6.48216e-07
27 *65:10 *515:B1 0
28 *65:10 *316:19 4.32319e-05
29 *65:10 *316:30 6.44316e-05
30 *65:12 *480:A 0
31 *65:12 *515:B1 0
32 *65:12 *316:8 2.94455e-05
33 *65:12 *316:19 0.000102626
34 *65:38 *368:A1 1.21774e-06
35 *65:38 *368:A2 3.55053e-06
36 *65:38 *376:B 0
37 *65:38 *490:A 0
38 *375:B2 *65:10 2.30003e-05
39 *378:B *378:C1 2.90423e-05
40 *515:B2 *479:B2 0
41 *515:B2 *65:12 0
42 *46:28 *479:B2 2.23871e-06
43 *63:8 *65:10 0
44 *63:31 *65:10 0
*RES
1 *375:ZN *65:10 22.9286 
2 *65:10 *65:12 7.03572 
3 *65:12 *479:B2 15.8929 
4 *65:12 *480:B2 14.6786 
5 *65:10 *65:38 7.25 
6 *65:38 *378:C1 23.8929 
7 *65:38 *377:B1 5 
*END

*D_NET *66 0.000752274
*CONN
*I *486:B2 I *D AOI22_X1
*I *378:C2 I *D AOI211_X1
*I *377:B2 I *D AOI21_X1
*I *479:B1 I *D OAI21_X1
*I *480:B1 I *D AOI21_X1
*I *376:Z O *D XOR2_X1
*CAP
1 *486:B2 2.94866e-05
2 *378:C2 2.10682e-05
3 *377:B2 8.58125e-06
4 *479:B1 3.88727e-05
5 *480:B1 3.62516e-05
6 *376:Z 4.20599e-05
7 *66:44 6.22196e-05
8 *66:33 3.4444e-05
9 *66:20 5.8879e-05
10 *377:B2 *376:A 0
11 *378:C2 *368:A1 1.74934e-05
12 *378:C2 *464:A 3.43708e-05
13 *479:B1 *479:A 1.56316e-05
14 *479:B1 *490:A 8.56923e-06
15 *479:B1 *491:A1 7.01897e-05
16 *479:B1 *491:A3 4.69702e-07
17 *479:B1 *300:36 1.30494e-05
18 *479:B1 *300:47 5.10087e-06
19 *480:B1 *376:B 2.39679e-06
20 *480:B1 *490:A 1.36766e-05
21 *486:B2 *486:B1 1.19839e-05
22 *486:B2 *491:A1 6.28524e-05
23 *486:B2 *300:60 7.47756e-06
24 *66:20 *376:A 2.52965e-06
25 *66:33 *491:A1 5.1189e-05
26 *66:33 *300:47 1.19024e-05
27 *66:44 *491:A1 3.79444e-05
28 *66:44 *300:47 2.08098e-06
29 *378:C1 *377:B2 1.25189e-05
30 *378:C1 *378:C2 1.14337e-05
31 *378:C1 *486:B2 1.04526e-05
32 *378:C1 *66:44 1.07633e-05
33 *480:B2 *480:B1 2.11815e-06
34 *58:10 *486:B2 4.21607e-06
*RES
1 *376:Z *480:B1 14.25 
2 *376:Z *66:20 10.75 
3 *66:20 *479:B1 16.25 
4 *66:20 *66:33 2.96429 
5 *66:33 *377:B2 11.25 
6 *66:33 *66:44 2.28572 
7 *66:44 *378:C2 13.75 
8 *66:44 *486:B2 14.8929 
*END

*D_NET *67 0.00031885
*CONN
*I *464:A I *D XNOR2_X1
*I *377:ZN O *D AOI21_X1
*CAP
1 *464:A 8.57009e-05
2 *377:ZN 8.57009e-05
3 *464:A *376:A 0
4 *464:A *464:B 1.73125e-05
5 *464:A *491:A2 1.48912e-05
6 *464:A *491:A3 0
7 *464:A *68:6 5.54609e-05
8 *464:A *300:47 1.23214e-06
9 *464:A *300:60 7.11905e-07
10 *378:A *464:A 1.57429e-05
11 *378:C1 *464:A 7.72537e-06
12 *378:C2 *464:A 3.43708e-05
*RES
1 *377:ZN *464:A 31.7857 
*END

*D_NET *68 0.000732119
*CONN
*I *379:A3 I *D OR3_X1
*I *448:B2 I *D OAI21_X1
*I *378:ZN O *D AOI211_X1
*CAP
1 *379:A3 4.28438e-05
2 *448:B2 2.8981e-05
3 *378:ZN 0.000115832
4 *68:6 0.000187657
5 *379:A3 *449:A1 4.9678e-06
6 *379:A3 *459:A2 1.25215e-05
7 *379:A3 *474:A3 2.2287e-05
8 *379:A3 *76:65 4.6613e-07
9 *448:B2 *76:10 4.26902e-05
10 *448:B2 *76:24 6.76378e-05
11 *448:B2 *188:12 3.71908e-05
12 *68:6 *449:A1 8.43215e-07
13 *68:6 *449:A3 9.57492e-07
14 *68:6 *464:B 4.68638e-06
15 *68:6 *474:A3 6.13704e-05
16 *68:6 *76:50 4.32144e-07
17 *68:6 *164:22 0
18 *68:6 *177:22 0
19 *379:A1 *379:A3 9.51045e-06
20 *379:A2 *379:A3 2.63983e-05
21 *448:A *379:A3 1.05929e-06
22 *448:B1 *68:6 0
23 *464:A *68:6 5.54609e-05
24 *57:18 *68:6 8.32605e-06
*RES
1 *378:ZN *68:6 19.75 
2 *68:6 *448:B2 20.6786 
3 *68:6 *379:A3 12.1071 
*END

*D_NET *69 0.000910082
*CONN
*I *382:B1 I *D AOI21_X1
*I *424:A2 I *D NAND3_X1
*I *449:A1 I *D NAND3_X1
*I *379:ZN O *D OR3_X1
*CAP
1 *382:B1 5.36763e-05
2 *424:A2 0
3 *449:A1 4.74192e-05
4 *379:ZN 0.000213592
5 *69:34 0.000219849
6 *382:B1 *382:A 1.19839e-05
7 *382:B1 *424:A3 2.32116e-05
8 *382:B1 *76:65 1.11435e-06
9 *382:B1 *76:84 2.16072e-07
10 *449:A1 *459:A2 2.39679e-06
11 *449:A1 *474:A3 4.11048e-05
12 *449:A1 *76:50 2.39679e-06
13 *449:A1 *76:65 1.8031e-05
14 *449:A1 *92:24 1.87418e-05
15 *449:A1 *188:12 7.98429e-05
16 *449:A1 *318:21 0
17 *69:34 *333:A 4.29713e-06
18 *69:34 *334:A 1.27666e-06
19 *69:34 *393:A1 8.95702e-06
20 *69:34 *393:A3 7.72537e-06
21 *69:34 *397:A3 1.18589e-06
22 *69:34 *424:A3 2.75346e-06
23 *69:34 *76:65 3.27913e-05
24 *69:34 *232:12 2.75088e-05
25 *69:34 *275:33 3.37286e-06
26 *69:34 *277:39 7.19036e-06
27 *69:34 *277:50 1.19839e-05
28 *69:34 *302:55 8.43215e-07
29 *379:A2 *449:A1 1.25722e-05
30 *379:A3 *449:A1 4.9678e-06
31 *382:B2 *382:B1 1.68777e-05
32 *382:B2 *69:34 7.16188e-07
33 *424:A1 *382:B1 1.76665e-06
34 *46:10 *69:34 1.29135e-05
35 *53:32 *69:34 1.59628e-05
36 *68:6 *449:A1 8.43215e-07
*RES
1 *379:ZN *449:A1 27.8214 
2 *379:ZN *69:34 27.6429 
3 *69:34 *424:A2 5 
4 *69:34 *382:B1 12.4286 
*END

*D_NET *70 6.03212e-05
*CONN
*I *442:B2 I *D AOI221_X1
*I *381:A I *D INV_X1
*I *380:Z O *D XOR2_X1
*CAP
1 *442:B2 2.14476e-05
2 *381:A 0
3 *380:Z 8.71307e-06
4 *70:6 3.01606e-05
5 *442:B2 *76:84 0
6 *442:B2 *92:85 0
*RES
1 *380:Z *70:6 5.92857 
2 *70:6 *381:A 5 
3 *70:6 *442:B2 7.28572 
*END

*D_NET *71 0.000531446
*CONN
*I *382:A I *D AOI21_X1
*I *424:A3 I *D NAND3_X1
*I *381:ZN O *D INV_X1
*CAP
1 *382:A 8.61691e-06
2 *424:A3 3.81133e-05
3 *381:ZN 2.27505e-05
4 *71:8 6.94807e-05
5 *424:A3 *444:B 4.18985e-05
6 *424:A3 *76:65 4.94675e-05
7 *424:A3 *319:8 4.24423e-05
8 *71:8 *444:B 0.000104247
9 *71:8 *319:8 6.12649e-05
10 *71:8 *319:19 4.32319e-05
11 *382:B1 *382:A 1.19839e-05
12 *382:B1 *424:A3 2.32116e-05
13 *382:B2 *382:A 1.19839e-05
14 *69:34 *424:A3 2.75346e-06
*RES
1 *381:ZN *71:8 15.6786 
2 *71:8 *424:A3 17.0357 
3 *71:8 *382:A 11.25 
*END

*D_NET *72 0.000871921
*CONN
*I *384:A3 I *D OR3_X1
*I *383:B2 I *D OAI21_X1
*I *426:A1 I *D NOR2_X1
*I *382:ZN O *D AOI21_X1
*CAP
1 *384:A3 5.2818e-05
2 *383:B2 0
3 *426:A1 4.3086e-05
4 *382:ZN 0
5 *72:27 0.000133233
6 *72:6 0.000123501
7 *384:A3 *403:B1 5.1189e-05
8 *384:A3 *541:B 2.84765e-06
9 *384:A3 *550:B2 9.30855e-05
10 *384:A3 *550:C2 2.55331e-06
11 *384:A3 *207:25 1.32323e-05
12 *384:A3 *320:8 1.20936e-06
13 *426:A1 *444:B 4.53606e-05
14 *426:A1 *551:A 0
15 *426:A1 *76:84 6.31048e-06
16 *426:A1 *90:84 1.11168e-06
17 *426:A1 *216:16 0
18 *72:27 *444:B 1.3143e-06
19 *72:27 *540:A2 5.10662e-06
20 *72:27 *550:C1 3.75755e-05
21 *72:27 *76:84 0
22 *72:27 *78:24 1.72426e-05
23 *72:27 *90:84 2.08098e-06
24 *72:27 *207:12 2.83264e-05
25 *72:27 *207:25 1.08381e-05
26 *72:27 *216:16 2.57883e-05
27 *72:27 *303:56 2.28245e-05
28 *382:B2 *426:A1 3.02351e-05
29 *382:B2 *72:27 4.16195e-06
30 *383:A *384:A3 8.00929e-05
31 *383:B1 *384:A3 3.01743e-06
32 *384:A1 *384:A3 1.68643e-06
33 *384:A2 *384:A3 2.39679e-06
34 *51:19 *384:A3 2.96955e-05
*RES
1 *382:ZN *72:6 10 
2 *72:6 *426:A1 16.5714 
3 *72:6 *72:27 17.3929 
4 *72:27 *383:B2 5 
5 *72:27 *384:A3 25.2143 
*END

*D_NET *73 0.000248205
*CONN
*I *388:A1 I *D AND3_X1
*I *540:A2 I *D NAND2_X1
*I *383:ZN O *D OAI21_X1
*CAP
1 *388:A1 7.68744e-06
2 *540:A2 5.12778e-05
3 *383:ZN 1.50803e-05
4 *73:6 7.40456e-05
5 *388:A1 *76:84 5.34233e-06
6 *388:A1 *207:25 1.90208e-06
7 *540:A2 *76:84 3.11128e-05
8 *540:A2 *77:44 4.16464e-05
9 *540:A2 *207:12 1.20336e-05
10 *540:A2 *207:25 2.16072e-07
11 *73:6 *207:38 0
12 *383:A *388:A1 2.75346e-06
13 *72:27 *540:A2 5.10662e-06
*RES
1 *383:ZN *73:6 6.60714 
2 *73:6 *540:A2 22.0357 
3 *73:6 *388:A1 6.25 
*END

*D_NET *74 0.000228642
*CONN
*I *388:A2 I *D AND3_X1
*I *384:ZN O *D OR3_X1
*CAP
1 *388:A2 2.37271e-05
2 *384:ZN 2.37271e-05
3 *388:A2 *320:8 8.75903e-06
4 *383:A *388:A2 5.46432e-05
5 *383:B1 *388:A2 6.76378e-05
6 *51:19 *388:A2 5.01473e-05
*RES
1 *384:ZN *388:A2 25.6786 
*END

*D_NET *75 0.00163584
*CONN
*I *402:A2 I *D NOR2_X1
*I *386:A2 I *D NOR2_X1
*I *387:A2 I *D OR2_X1
*I *511:A2 I *D NOR2_X1
*I *385:ZN O *D OR2_X1
*CAP
1 *402:A2 0
2 *386:A2 0
3 *387:A2 4.9137e-05
4 *511:A2 0.000179319
5 *385:ZN 5.52912e-05
6 *75:24 0.000259152
7 *75:20 0.000199635
8 *75:14 0.00022423
9 *387:A2 *386:A1 2.10772e-05
10 *387:A2 *387:A1 0
11 *387:A2 *430:A2 1.54649e-06
12 *387:A2 *494:B1 3.30047e-06
13 *387:A2 *502:A1 1.33952e-05
14 *387:A2 *277:131 8.43215e-07
15 *511:A2 *372:A1 5.52692e-06
16 *511:A2 *485:A 1.26998e-05
17 *511:A2 *485:B1 1.04717e-05
18 *511:A2 *493:B1 6.82202e-07
19 *511:A2 *494:B1 6.71156e-06
20 *511:A2 *513:A2 6.44704e-05
21 *511:A2 *513:A3 2.47811e-05
22 *511:A2 *90:30 0
23 *511:A2 *298:41 4.2108e-05
24 *511:A2 *299:70 1.40523e-05
25 *511:A2 *314:27 0.000108745
26 *511:A2 *315:40 5.85076e-06
27 *75:14 *334:A 2.90163e-06
28 *75:14 *402:A1 1.28334e-05
29 *75:14 *451:A2 4.58405e-06
30 *75:14 *83:12 9.22959e-05
31 *75:14 *90:22 7.19036e-06
32 *75:14 *92:14 0
33 *75:14 *233:8 1.32323e-05
34 *75:20 *386:A1 7.30645e-06
35 *75:20 *402:A1 1.21774e-06
36 *75:20 *430:A1 0
37 *75:20 *430:A2 9.62051e-07
38 *75:20 *451:A2 4.27339e-05
39 *75:20 *453:C1 2.87703e-06
40 *75:20 *76:10 8.74783e-05
41 *75:20 *77:44 0
42 *75:20 *90:30 3.28387e-05
43 *75:20 *103:10 0
44 *75:20 *233:8 0
45 *75:24 *386:A1 1.21774e-06
46 *75:24 *387:A1 0
47 *75:24 *90:30 2.58428e-06
48 *453:C2 *75:20 7.9624e-06
49 *499:B *511:A2 2.43548e-06
50 *53:32 *75:14 7.72537e-06
51 *64:20 *511:A2 2.43548e-06
*RES
1 *385:ZN *75:14 23.5 
2 *75:14 *75:20 22.7857 
3 *75:20 *75:24 3.53572 
4 *75:24 *511:A2 41.1072 
5 *75:24 *387:A2 11.6786 
6 *75:20 *386:A2 5 
7 *75:14 *402:A2 5 
*END

*D_NET *76 0.00317157
*CONN
*I *557:A I *D OAI211_X1
*I *561:A I *D OAI211_X1
*I *388:A3 I *D AND3_X1
*I *425:A1 I *D NAND2_X1
*I *449:A2 I *D NAND3_X1
*I *477:B2 I *D AOI221_X1
*I *479:A I *D OAI21_X1
*I *386:ZN O *D NOR2_X1
*CAP
1 *557:A 6.87197e-06
2 *561:A 3.50937e-05
3 *388:A3 0
4 *425:A1 0
5 *449:A2 0
6 *477:B2 0
7 *479:A 0.00017068
8 *386:ZN 0.000156762
9 *76:91 0.000116304
10 *76:84 0.000206666
11 *76:65 0.000390332
12 *76:50 0.00026431
13 *76:24 0.000249471
14 *76:10 0.000241858
15 *479:A *477:C2 9.57492e-06
16 *479:A *491:A1 1.64388e-05
17 *479:A *491:A2 5.7295e-06
18 *479:A *491:A3 4.9678e-06
19 *479:A *177:22 4.36545e-06
20 *479:A *277:10 5.48932e-05
21 *479:A *317:8 0
22 *557:A *557:B 7.19036e-06
23 *557:A *561:C1 2.16072e-07
24 *557:A *207:38 4.32144e-07
25 *561:A *538:A2 0
26 *561:A *548:B1 1.2453e-05
27 *561:A *557:B 0
28 *561:A *561:B 7.19036e-06
29 *561:A *561:C1 2.39679e-06
30 *561:A *204:21 0
31 *561:A *205:10 5.46432e-05
32 *76:10 *386:A1 3.38333e-05
33 *76:10 *430:A2 1.1425e-05
34 *76:10 *188:12 3.87161e-05
35 *76:10 *277:116 0
36 *76:10 *277:131 4.79358e-06
37 *76:24 *477:B1 1.39417e-06
38 *76:24 *477:C2 5.69079e-06
39 *76:24 *164:22 3.17886e-05
40 *76:24 *177:22 5.89022e-05
41 *76:24 *188:12 6.54111e-06
42 *76:24 *277:20 8.99555e-06
43 *76:24 *277:116 0
44 *76:50 *449:A3 7.19036e-06
45 *76:65 *356:A2 1.18589e-06
46 *76:65 *365:A 1.2087e-05
47 *76:65 *398:A1 1.06847e-05
48 *76:65 *400:A1 7.19036e-06
49 *76:65 *400:A2 1.25189e-05
50 *76:65 *425:A2 1.49007e-05
51 *76:65 *459:A2 4.12459e-06
52 *76:65 *474:A3 8.93516e-06
53 *76:65 *554:A2 0
54 *76:65 *88:8 9.02997e-06
55 *76:65 *109:10 1.34529e-05
56 *76:65 *275:33 8.22158e-05
57 *76:65 *277:50 1.28122e-06
58 *76:65 *302:55 0
59 *76:84 *426:A2 8.26038e-06
60 *76:84 *550:C1 0
61 *76:84 *77:44 4.20792e-05
62 *76:84 *92:85 7.11458e-05
63 *76:84 *216:16 9.32677e-05
64 *76:84 *303:56 5.56848e-05
65 *76:91 *557:B 5.12483e-05
66 *76:91 *92:85 1.67775e-05
67 *76:91 *207:25 0
68 *76:91 *207:38 1.41345e-05
69 *379:A1 *76:65 2.61827e-06
70 *379:A2 *76:65 1.59582e-06
71 *379:A3 *76:65 4.6613e-07
72 *382:B1 *76:65 1.11435e-06
73 *382:B1 *76:84 2.16072e-07
74 *383:A *76:91 6.82202e-07
75 *388:A1 *76:84 5.34233e-06
76 *424:A3 *76:65 4.94675e-05
77 *426:A1 *76:84 6.31048e-06
78 *442:B2 *76:84 0
79 *448:A *76:65 1.95641e-05
80 *448:B1 *76:24 3.23723e-07
81 *448:B2 *76:10 4.26902e-05
82 *448:B2 *76:24 6.76378e-05
83 *449:A1 *76:50 2.39679e-06
84 *449:A1 *76:65 1.8031e-05
85 *477:C1 *76:24 1.78436e-06
86 *479:B1 *479:A 1.56316e-05
87 *479:B2 *479:A 1.26998e-05
88 *540:A2 *76:84 3.11128e-05
89 *46:10 *76:65 1.2861e-05
90 *46:26 *479:A 0
91 *46:93 *76:65 0
92 *46:104 *76:84 0
93 *68:6 *76:50 4.32144e-07
94 *69:34 *76:65 3.27913e-05
95 *72:27 *76:84 0
96 *75:20 *76:10 8.74783e-05
*RES
1 *386:ZN *76:10 30.7143 
2 *76:10 *76:24 17.6071 
3 *76:24 *479:A 36.5714 
4 *76:24 *477:B2 5 
5 *76:10 *76:50 5.75 
6 *76:50 *449:A2 5 
7 *76:50 *76:65 44.8214 
8 *76:65 *425:A1 5 
9 *76:65 *76:84 30.75 
10 *76:84 *388:A3 5 
11 *76:84 *76:91 9.75 
12 *76:91 *561:A 19.3929 
13 *76:91 *557:A 5.75 
*END

*D_NET *77 0.00193527
*CONN
*I *551:C1 I *D OAI211_X1
*I *502:A1 I *D OAI22_X1
*I *387:ZN O *D OR2_X1
*CAP
1 *551:C1 8.2591e-06
2 *502:A1 6.58844e-05
3 *387:ZN 0.0001905
4 *77:44 0.000295964
5 *77:38 0.000412321
6 *502:A1 *450:A3 1.38574e-05
7 *502:A1 *494:B1 2.97556e-05
8 *502:A1 *502:A2 2.75346e-06
9 *502:A1 *502:B1 8.43215e-07
10 *502:A1 *502:B2 1.63073e-05
11 *502:A1 *503:A4 9.17959e-05
12 *502:A1 *86:42 5.20238e-07
13 *502:A1 *99:39 1.87369e-06
14 *502:A1 *118:12 3.34509e-06
15 *502:A1 *301:54 1.84823e-05
16 *551:C1 *551:B 8.43215e-07
17 *551:C1 *551:C2 8.43215e-07
18 *551:C1 *216:16 4.32144e-07
19 *77:38 *430:A2 6.32202e-06
20 *77:38 *442:A 8.93813e-05
21 *77:38 *450:A1 1.79463e-06
22 *77:38 *458:A 2.82592e-05
23 *77:38 *476:A3 2.1905e-07
24 *77:38 *188:12 0
25 *77:38 *302:71 2.77175e-05
26 *77:44 *396:A1 3.73052e-05
27 *77:44 *402:A1 8.62199e-06
28 *77:44 *404:A 0
29 *77:44 *413:A1 3.24091e-05
30 *77:44 *413:A2 2.63647e-05
31 *77:44 *431:B2 0
32 *77:44 *442:A 3.23723e-07
33 *77:44 *443:A3 6.38328e-06
34 *77:44 *443:A4 7.19036e-06
35 *77:44 *444:B 3.09143e-06
36 *77:44 *551:A 1.72426e-05
37 *77:44 *551:B 1.62377e-05
38 *77:44 *86:18 0
39 *77:44 *86:92 6.7769e-05
40 *77:44 *103:10 7.73562e-05
41 *77:44 *125:12 8.02974e-06
42 *77:44 *207:12 8.3499e-06
43 *77:44 *303:56 0.000143487
44 *77:44 *304:37 0
45 *387:A2 *502:A1 1.33952e-05
46 *540:A1 *77:44 4.24402e-05
47 *540:A2 *77:44 4.16464e-05
48 *52:8 *77:44 9.9356e-06
49 *52:10 *77:44 1.73362e-05
50 *75:20 *77:44 0
51 *76:84 *77:44 4.20792e-05
*RES
1 *387:ZN *502:A1 31.2143 
2 *387:ZN *77:38 31.7357 
3 *77:38 *77:44 47.0714 
4 *77:44 *551:C1 10.75 
*END

*D_NET *78 0.00121533
*CONN
*I *554:A2 I *D NOR4_X1
*I *421:A2 I *D NOR3_X1
*I *388:ZN O *D AND3_X1
*CAP
1 *554:A2 7.09646e-05
2 *421:A2 3.04444e-05
3 *388:ZN 0.000121457
4 *78:26 0.00017991
5 *78:24 0.000199958
6 *421:A2 *554:A3 7.19036e-06
7 *421:A2 *110:8 2.39679e-06
8 *421:A2 *133:14 4.7875e-06
9 *421:A2 *303:28 7.47756e-06
10 *554:A2 *422:A2 5.54328e-05
11 *554:A2 *554:A3 1.90574e-06
12 *554:A2 *555:B2 6.32461e-06
13 *554:A2 *109:10 7.54346e-07
14 *554:A2 *110:8 2.55387e-06
15 *554:A2 *193:22 3.09143e-06
16 *78:24 *362:A1 2.37137e-05
17 *78:24 *550:C1 8.26038e-06
18 *78:24 *90:76 4.82191e-05
19 *78:24 *90:84 4.01773e-05
20 *78:24 *92:66 5.89762e-06
21 *78:24 *92:85 5.47151e-05
22 *78:24 *216:16 9.40239e-05
23 *78:24 *303:43 1.91743e-05
24 *78:24 *303:56 4.12459e-06
25 *78:26 *425:A2 8.03846e-05
26 *78:26 *303:28 2.09875e-05
27 *421:A1 *421:A2 3.49085e-06
28 *421:A1 *554:A2 8.29353e-06
29 *46:93 *421:A2 7.06531e-06
30 *46:93 *554:A2 3.56749e-05
31 *48:8 *421:A2 2.25089e-06
32 *48:8 *554:A2 1.21774e-06
33 *52:10 *78:24 4.57706e-05
34 *72:27 *78:24 1.72426e-05
35 *76:65 *554:A2 0
*RES
1 *388:ZN *78:24 41.2143 
2 *78:24 *78:26 9.75 
3 *78:26 *421:A2 14.2857 
4 *78:26 *554:A2 30 
*END

*D_NET *79 0.000380639
*CONN
*I *411:B2 I *D AOI21_X1
*I *389:ZN O *D NAND2_X1
*CAP
1 *411:B2 0.000117872
2 *389:ZN 0.000117872
3 *411:B2 *419:B 2.39679e-06
4 *411:B2 *437:A 1.04584e-06
5 *411:B2 *440:B1 2.2822e-05
6 *411:B2 *547:C2 1.25189e-05
7 *411:B2 *229:112 1.8346e-05
8 *411:B2 *303:79 1.57397e-05
9 *411:B2 *303:88 1.0537e-05
10 *411:B2 *314:138 5.67552e-05
11 *411:B2 *314:146 4.73284e-06
*RES
1 *389:ZN *411:B2 26.7143 
*END

*D_NET *80 0.000712342
*CONN
*I *391:A2 I *D NAND2_X1
*I *455:A I *D MUX2_X1
*I *390:Z O *D MUX2_X1
*CAP
1 *391:A2 0
2 *455:A 2.79233e-05
3 *390:Z 0.000131618
4 *80:10 0.000159542
5 *455:A *404:B2 5.33113e-06
6 *455:A *481:B1 7.19036e-06
7 *455:A *129:35 2.04239e-05
8 *455:A *229:59 1.58306e-05
9 *455:A *229:103 1.03048e-06
10 *80:10 *404:B2 4.59328e-06
11 *80:10 *469:A1 2.23871e-06
12 *80:10 *469:A2 0
13 *80:10 *549:A1 0
14 *80:10 *128:8 0
15 *80:10 *129:35 0.000141842
16 *80:10 *230:99 0.000194779
*RES
1 *390:Z *80:10 26.6072 
2 *80:10 *455:A 9.75 
3 *80:10 *391:A2 5 
*END

*D_NET *81 0.00092777
*CONN
*I *404:B2 I *D OAI221_X1
*I *481:B1 I *D AOI21_X1
*I *391:ZN O *D NAND2_X1
*CAP
1 *404:B2 0.000140183
2 *481:B1 7.01044e-05
3 *391:ZN 0
4 *81:4 0.000210287
5 *404:B2 *404:B1 3.40142e-05
6 *404:B2 *404:C2 4.16464e-05
7 *404:B2 *413:A1 2.89018e-05
8 *404:B2 *419:A 1.76793e-05
9 *404:B2 *419:B 2.15488e-06
10 *404:B2 *419:C1 9.05228e-06
11 *404:B2 *470:B 1.41885e-05
12 *404:B2 *544:A2 1.33157e-05
13 *404:B2 *86:18 3.45492e-05
14 *404:B2 *97:8 2.3905e-05
15 *404:B2 *97:31 3.43414e-06
16 *404:B2 *102:8 4.80783e-06
17 *404:B2 *109:10 1.60377e-06
18 *404:B2 *228:10 7.89234e-05
19 *404:B2 *229:103 7.72792e-06
20 *404:B2 *229:112 2.48621e-05
21 *404:B2 *230:97 5.64879e-06
22 *404:B2 *230:99 1.26998e-05
23 *481:B1 *419:C2 3.26599e-05
24 *481:B1 *481:A 2.77917e-07
25 *481:B1 *488:B1 7.29164e-07
26 *481:B1 *229:59 0
27 *481:B1 *229:103 7.19036e-06
28 *481:B1 *316:107 1.16008e-05
29 *481:B1 *316:138 7.85075e-05
30 *455:A *404:B2 5.33113e-06
31 *455:A *481:B1 7.19036e-06
32 *80:10 *404:B2 4.59328e-06
*RES
1 *391:ZN *81:4 5 
2 *81:4 *481:B1 24.75 
3 *81:4 *404:B2 36.6786 
*END

*D_NET *82 0.000397116
*CONN
*I *470:A I *D OAI211_X1
*I *395:A2 I *D NAND2_X1
*I *392:ZN O *D NOR3_X1
*CAP
1 *470:A 1.82752e-05
2 *395:A2 0
3 *392:ZN 2.68623e-05
4 *82:8 4.51375e-05
5 *470:A *404:B1 1.29947e-05
6 *470:A *413:A1 7.86738e-05
7 *470:A *85:31 6.57402e-05
8 *82:8 *404:B1 6.7642e-05
9 *82:8 *413:A1 5.51869e-05
10 *82:8 *520:B2 1.84849e-05
11 *82:8 *83:12 8.1183e-06
*RES
1 *392:ZN *82:8 15.6786 
2 *82:8 *395:A2 10 
3 *82:8 *470:A 14.3214 
*END

*D_NET *83 0.000897542
*CONN
*I *481:A I *D AOI21_X1
*I *497:A2 I *D NOR2_X1
*I *394:A2 I *D NOR2_X1
*I *393:ZN O *D NAND3_X1
*CAP
1 *481:A 6.6526e-05
2 *497:A2 6.30282e-06
3 *394:A2 3.53665e-06
4 *393:ZN 0.000167227
5 *83:23 9.28477e-05
6 *83:12 0.000190783
7 *394:A2 *84:14 7.72537e-06
8 *394:A2 *203:8 8.26038e-06
9 *481:A *394:A1 7.18127e-05
10 *481:A *413:A1 0
11 *481:A *85:31 0
12 *481:A *143:12 5.86875e-06
13 *481:A *316:138 0
14 *497:A2 *497:A1 2.52965e-06
15 *497:A2 *84:14 3.09143e-06
16 *83:12 *334:A 0
17 *83:12 *392:A1 3.77683e-05
18 *83:12 *397:A2 6.11944e-06
19 *83:12 *404:B1 1.55619e-05
20 *83:12 *520:B2 1.4293e-06
21 *83:12 *84:14 2.92206e-05
22 *83:12 *90:22 5.64879e-06
23 *83:12 *92:14 0
24 *83:12 *203:8 2.69996e-05
25 *83:12 *233:12 6.34619e-06
26 *83:12 *275:53 9.72832e-06
27 *83:12 *276:40 1.045e-05
28 *83:23 *394:A1 1.72405e-05
29 *83:23 *404:B1 0
30 *83:23 *143:12 3.82563e-06
31 *481:B1 *481:A 2.77917e-07
32 *75:14 *83:12 9.22959e-05
33 *82:8 *83:12 8.1183e-06
*RES
1 *393:ZN *83:12 37 
2 *83:12 *394:A2 5.75 
3 *83:12 *83:23 7.28572 
4 *83:23 *497:A2 10.75 
5 *83:23 *481:A 17.3571 
*END

*D_NET *84 0.000861437
*CONN
*I *458:C2 I *D AOI211_X1
*I *548:A1 I *D AOI22_X1
*I *441:A1 I *D NAND2_X1
*I *394:ZN O *D NOR2_X1
*CAP
1 *458:C2 7.07367e-05
2 *548:A1 5.39361e-05
3 *441:A1 1.26104e-05
4 *394:ZN 0.00019742
5 *84:14 0.00019323
6 *441:A1 *443:A3 1.88334e-06
7 *441:A1 *109:10 0
8 *441:A1 *125:12 6.50581e-06
9 *458:C2 *458:A 3.19164e-07
10 *458:C2 *458:C1 3.65322e-06
11 *458:C2 *86:18 3.366e-05
12 *458:C2 *143:12 3.22252e-05
13 *458:C2 *146:14 3.41922e-05
14 *458:C2 *182:6 2.52965e-06
15 *458:C2 *302:71 3.86218e-05
16 *548:A1 *404:A 1.08641e-05
17 *548:A1 *431:B1 1.59582e-06
18 *548:A1 *548:A2 1.09597e-05
19 *548:A1 *548:B1 8.26038e-06
20 *84:14 *404:A 1.60038e-06
21 *84:14 *404:C2 1.19793e-05
22 *84:14 *412:A2 1.36377e-05
23 *84:14 *413:A1 6.48216e-07
24 *84:14 *497:A1 7.66449e-06
25 *84:14 *549:A1 0
26 *84:14 *125:12 2.84765e-06
27 *84:14 *203:8 9.18388e-06
28 *84:14 *228:12 1.28122e-06
29 *394:A2 *84:14 7.72537e-06
30 *404:C1 *441:A1 1.52083e-06
31 *404:C1 *548:A1 8.50301e-06
32 *404:C1 *84:14 4.93302e-05
33 *497:A2 *84:14 3.09143e-06
34 *83:12 *84:14 2.92206e-05
*RES
1 *394:ZN *84:14 26.8571 
2 *84:14 *441:A1 11.6071 
3 *84:14 *548:A1 17.1786 
4 *394:ZN *458:C2 30.3571 
*END

*D_NET *85 0.00148954
*CONN
*I *518:A I *D AOI221_X1
*I *502:B2 I *D OAI22_X1
*I *404:B1 I *D OAI221_X1
*I *395:ZN O *D NAND2_X1
*CAP
1 *518:A 2.60902e-05
2 *502:B2 6.03178e-05
3 *404:B1 6.96239e-05
4 *395:ZN 0
5 *85:31 0.000275271
6 *85:6 0.000258487
7 *404:B1 *404:A 2.39679e-06
8 *404:B1 *404:C2 1.05878e-05
9 *404:B1 *413:A1 2.68997e-05
10 *404:B1 *86:18 1.1622e-05
11 *404:B1 *203:8 3.5628e-06
12 *502:B2 *450:A3 8.08825e-05
13 *502:B2 *502:B1 2.39679e-06
14 *502:B2 *503:A1 8.43215e-07
15 *502:B2 *503:A3 3.23723e-07
16 *502:B2 *518:B1 6.26003e-05
17 *502:B2 *519:B 6.76399e-05
18 *502:B2 *99:39 0
19 *502:B2 *118:12 5.10087e-06
20 *502:B2 *188:8 3.65322e-06
21 *502:B2 *301:54 8.15113e-06
22 *518:A *519:B 1.88334e-06
23 *518:A *118:12 2.30002e-06
24 *518:A *301:54 2.62321e-05
25 *85:31 *409:A2 1.59582e-06
26 *85:31 *413:A1 2.36013e-06
27 *85:31 *473:A1 7.72792e-06
28 *85:31 *476:A1 7.65145e-05
29 *85:31 *476:A2 1.8031e-05
30 *85:31 *488:B1 1.07428e-05
31 *85:31 *518:B1 2.52965e-06
32 *85:31 *519:A 0
33 *85:31 *174:16 4.41414e-05
34 *85:31 *316:68 9.87264e-06
35 *85:31 *316:85 5.92329e-05
36 *85:31 *316:107 3.76593e-05
37 *404:B2 *404:B1 3.40142e-05
38 *470:A *404:B1 1.29947e-05
39 *470:A *85:31 6.57402e-05
40 *481:A *85:31 0
41 *502:A1 *502:B2 1.63073e-05
42 *82:8 *404:B1 6.7642e-05
43 *83:12 *404:B1 1.55619e-05
44 *83:23 *404:B1 0
*RES
1 *395:ZN *85:6 10 
2 *85:6 *404:B1 20.5714 
3 *85:6 *85:31 37.8214 
4 *85:31 *502:B2 20.8214 
5 *85:31 *518:A 13.9286 
*END

*D_NET *86 0.00308686
*CONN
*I *548:B2 I *D AOI22_X1
*I *442:C2 I *D AOI221_X1
*I *475:C2 I *D AOI221_X1
*I *493:A2 I *D AOI22_X1
*I *486:A2 I *D AOI22_X1
*I *515:C2 I *D AOI221_X1
*I *396:ZN O *D NOR3_X1
*CAP
1 *548:B2 5.32084e-05
2 *442:C2 0
3 *475:C2 0
4 *493:A2 0
5 *486:A2 6.58589e-05
6 *515:C2 8.48191e-05
7 *396:ZN 0
8 *86:92 0.000118889
9 *86:44 0.000173103
10 *86:42 0.000162159
11 *86:28 0.000277108
12 *86:18 0.000356661
13 *86:4 0.000284967
14 *486:A2 *485:B2 0
15 *486:A2 *486:B1 4.05064e-06
16 *486:A2 *487:A1 1.72811e-05
17 *486:A2 *491:A1 2.08098e-06
18 *486:A2 *90:30 6.983e-05
19 *486:A2 *90:43 2.55307e-05
20 *486:A2 *300:60 6.78899e-05
21 *486:A2 *300:75 4.62071e-05
22 *515:C2 *369:A1 4.78054e-06
23 *515:C2 *515:B1 8.43215e-07
24 *515:C2 *315:53 1.43238e-06
25 *515:C2 *315:61 1.05325e-05
26 *548:B2 *403:A2 7.19036e-06
27 *548:B2 *404:A 4.51623e-05
28 *548:B2 *442:B1 1.68643e-06
29 *548:B2 *443:A4 2.94435e-05
30 *548:B2 *548:B1 7.72537e-06
31 *548:B2 *90:84 0.000154896
32 *548:B2 *92:85 8.43215e-07
33 *548:B2 *216:16 3.41026e-05
34 *86:18 *392:A1 3.09411e-06
35 *86:18 *392:A2 6.82202e-07
36 *86:18 *404:A 3.30047e-06
37 *86:18 *413:A1 0
38 *86:18 *443:A3 6.50581e-06
39 *86:18 *453:A 1.74934e-05
40 *86:18 *458:B 4.15825e-06
41 *86:18 *103:10 2.00602e-05
42 *86:18 *109:10 2.00182e-05
43 *86:18 *125:12 0
44 *86:18 *203:8 1.27711e-05
45 *86:28 *363:A1 8.32672e-06
46 *86:28 *442:A 1.23137e-05
47 *86:28 *453:A 9.53289e-06
48 *86:28 *453:B 1.4293e-06
49 *86:28 *453:C1 4.08159e-05
50 *86:28 *503:A3 9.77674e-06
51 *86:28 *90:30 2.49546e-05
52 *86:28 *92:24 1.40719e-05
53 *86:28 *188:12 7.578e-05
54 *86:42 *430:A2 7.19036e-06
55 *86:42 *450:A3 1.80259e-05
56 *86:42 *475:B1 4.77786e-06
57 *86:42 *494:B1 6.38738e-05
58 *86:42 *503:A2 6.02287e-06
59 *86:42 *503:A3 8.99555e-06
60 *86:42 *513:A2 2.39679e-06
61 *86:42 *99:39 3.69485e-05
62 *86:42 *118:12 1.66988e-05
63 *86:42 *163:12 0.000180096
64 *86:42 *301:54 0
65 *86:44 *494:A 4.32144e-07
66 *86:44 *494:B1 8.43215e-07
67 *86:44 *503:A2 0
68 *86:44 *513:A2 7.19036e-06
69 *86:92 *431:B1 9.77674e-06
70 *86:92 *442:A 4.26527e-05
71 *374:A1 *515:C2 9.76549e-06
72 *404:B1 *86:18 1.1622e-05
73 *404:B2 *86:18 3.45492e-05
74 *458:C2 *86:18 3.366e-05
75 *475:C1 *86:28 1.21774e-06
76 *475:C1 *86:42 4.78054e-06
77 *486:A1 *486:A2 2.39679e-06
78 *493:A1 *486:A2 1.66988e-05
79 *493:A1 *515:C2 1.19839e-05
80 *493:A1 *86:44 1.98902e-05
81 *502:A1 *86:42 5.20238e-07
82 *511:A1 *515:C2 7.16188e-07
83 *52:8 *548:B2 2.39679e-06
84 *52:8 *86:92 4.10287e-05
85 *52:10 *548:B2 4.79358e-06
86 *53:6 *86:28 8.26038e-06
87 *53:15 *86:28 0
88 *61:16 *515:C2 2.14856e-06
89 *64:20 *515:C2 1.30516e-05
90 *64:20 *86:44 3.23723e-07
91 *77:44 *86:18 0
92 *77:44 *86:92 6.7769e-05
*RES
1 *396:ZN *86:4 5 
2 *86:4 *86:18 42.2857 
3 *86:18 *86:28 25.7143 
4 *86:28 *86:42 31.4286 
5 *86:42 *86:44 2.75 
6 *86:44 *515:C2 15.7857 
7 *86:44 *486:A2 27.1786 
8 *86:42 *493:A2 5 
9 *86:28 *475:C2 5 
10 *86:4 *86:92 20.6071 
11 *86:92 *442:C2 5 
12 *86:92 *548:B2 25.5714 
*END

*D_NET *87 0.000860695
*CONN
*I *404:C2 I *D OAI221_X1
*I *451:A2 I *D OR2_X1
*I *397:ZN O *D NAND3_X1
*CAP
1 *404:C2 9.02387e-05
2 *451:A2 7.88272e-05
3 *397:ZN 0.000169066
4 *404:C2 *404:A 2.39679e-06
5 *404:C2 *413:A1 4.10034e-05
6 *404:C2 *520:B2 1.53357e-05
7 *404:C2 *97:8 0.000201858
8 *404:C2 *277:67 4.37715e-05
9 *404:C2 *277:78 1.19301e-05
10 *404:C2 *277:91 4.64016e-05
11 *451:A2 *334:A 4.97446e-06
12 *451:A2 *90:22 2.03049e-05
13 *451:A2 *233:8 8.98e-06
14 *404:B1 *404:C2 1.05878e-05
15 *404:B2 *404:C2 4.16464e-05
16 *404:C1 *404:C2 8.43215e-07
17 *451:A1 *451:A2 1.32323e-05
18 *75:14 *451:A2 4.58405e-06
19 *75:20 *451:A2 4.27339e-05
20 *84:14 *404:C2 1.19793e-05
*RES
1 *397:ZN *451:A2 21.7857 
2 *397:ZN *404:C2 36.8929 
*END

*D_NET *88 0.000746451
*CONN
*I *400:A2 I *D NOR2_X1
*I *399:A I *D INV_X1
*I *474:A3 I *D NOR3_X1
*I *398:ZN O *D NAND2_X1
*CAP
1 *400:A2 2.20136e-05
2 *399:A 0
3 *474:A3 0.000137299
4 *398:ZN 3.45113e-06
5 *88:8 0.000159869
6 *88:6 4.80352e-05
7 *400:A2 *398:A1 2.39679e-06
8 *400:A2 *276:12 2.16072e-07
9 *474:A3 *365:A 2.90423e-05
10 *474:A3 *459:A2 4.45767e-06
11 *474:A3 *188:12 1.81716e-05
12 *474:A3 *277:20 1.24675e-05
13 *88:6 *276:12 4.97191e-06
14 *88:8 *276:12 2.90423e-05
15 *379:A2 *474:A3 7.92205e-05
16 *379:A3 *474:A3 2.2287e-05
17 *448:A *474:A3 2.88019e-05
18 *449:A1 *474:A3 4.11048e-05
19 *46:93 *474:A3 5.52959e-06
20 *46:93 *88:8 3.46596e-06
21 *57:18 *474:A3 2.75346e-06
22 *68:6 *474:A3 6.13704e-05
23 *76:65 *400:A2 1.25189e-05
24 *76:65 *474:A3 8.93516e-06
25 *76:65 *88:8 9.02997e-06
*RES
1 *398:ZN *88:6 5.75 
2 *88:6 *88:8 3.75 
3 *88:8 *474:A3 36 
4 *88:8 *399:A 5 
5 *88:6 *400:A2 7.85714 
*END

*D_NET *89 0.000189081
*CONN
*I *510:B I *D OAI211_X1
*I *399:ZN O *D INV_X1
*CAP
1 *510:B 3.82396e-05
2 *399:ZN 3.82396e-05
3 *510:B *510:A 7.72792e-06
4 *510:B *276:12 2.94435e-05
5 *510:B *277:20 2.97531e-05
6 *510:B *277:24 7.3003e-06
7 *46:10 *510:B 3.82563e-06
8 *46:93 *510:B 3.45517e-05
*RES
1 *399:ZN *510:B 26.2143 
*END

*D_NET *90 0.00380829
*CONN
*I *550:C1 I *D AOI221_X1
*I *403:A2 I *D AOI22_X1
*I *431:A I *D OAI21_X1
*I *452:A I *D AOI21_X1
*I *401:A I *D INV_X1
*I *512:B1 I *D OAI22_X1
*I *485:A I *D OAI21_X1
*I *400:ZN O *D NOR2_X1
*CAP
1 *550:C1 6.79666e-05
2 *403:A2 9.19228e-05
3 *431:A 0
4 *452:A 0
5 *401:A 2.11499e-05
6 *512:B1 7.20225e-05
7 *485:A 8.95736e-06
8 *400:ZN 3.6847e-05
9 *90:84 0.000177691
10 *90:76 0.000251265
11 *90:43 0.000175557
12 *90:30 0.000303789
13 *90:22 0.000307382
14 *90:10 0.000229312
15 *401:A *517:B2 1.63988e-05
16 *401:A *519:A 3.71268e-05
17 *403:A2 *359:A2 4.44127e-06
18 *403:A2 *403:B1 2.16072e-07
19 *403:A2 *404:A 3.8362e-05
20 *403:A2 *431:B1 2.39679e-06
21 *403:A2 *431:B2 9.01846e-07
22 *403:A2 *548:B1 2.11794e-05
23 *485:A *485:B1 2.39679e-06
24 *485:A *485:B2 1.86809e-06
25 *512:B1 *416:A2 0
26 *512:B1 *503:A2 2.13666e-05
27 *512:B1 *512:A1 1.21774e-06
28 *512:B1 *512:B2 2.75346e-06
29 *512:B1 *517:B2 6.65423e-06
30 *512:B1 *519:A 1.74934e-05
31 *512:B1 *106:25 3.83453e-06
32 *512:B1 *299:81 8.06346e-05
33 *550:C1 *550:C2 1.21774e-06
34 *550:C1 *551:B 4.43147e-05
35 *550:C1 *216:16 6.07041e-06
36 *550:C1 *303:56 4.6613e-07
37 *90:10 *397:A3 9.77674e-06
38 *90:10 *520:B2 1.5025e-05
39 *90:10 *275:33 0.000120408
40 *90:10 *277:50 6.78878e-05
41 *90:10 *277:67 5.33077e-05
42 *90:22 *334:A 6.85774e-07
43 *90:22 *397:A2 1.72426e-05
44 *90:22 *397:A3 2.15711e-05
45 *90:22 *92:14 4.04937e-05
46 *90:22 *233:8 0
47 *90:30 *453:C1 7.72792e-06
48 *90:30 *485:B2 6.46697e-06
49 *90:30 *486:B1 0
50 *90:30 *487:A1 4.29819e-05
51 *90:30 *92:14 2.39679e-06
52 *90:30 *92:26 0
53 *90:43 *300:75 3.05953e-05
54 *90:76 *332:A 0
55 *90:76 *362:A1 1.17263e-05
56 *90:76 *397:A1 1.18589e-06
57 *90:76 *397:A3 1.26998e-05
58 *90:76 *442:A 0
59 *90:84 *404:A 1.52083e-06
60 *90:84 *431:B1 1.55934e-05
61 *90:84 *441:A2 9.85721e-07
62 *90:84 *444:B 0.00020538
63 *90:84 *92:66 5.89762e-06
64 *90:84 *216:16 1.3143e-06
65 *361:A1 *403:A2 2.76095e-05
66 *382:B2 *90:76 5.49412e-05
67 *426:A1 *90:84 1.11168e-06
68 *451:A1 *90:22 1.32323e-05
69 *451:A1 *90:30 2.75346e-06
70 *451:A2 *90:22 2.03049e-05
71 *475:C1 *90:30 4.55329e-05
72 *486:A2 *90:30 6.983e-05
73 *486:A2 *90:43 2.55307e-05
74 *493:A1 *90:43 2.94435e-05
75 *494:C1 *90:43 0.000101266
76 *511:A2 *485:A 1.26998e-05
77 *511:A2 *90:30 0
78 *540:A1 *403:A2 8.72084e-07
79 *548:B2 *403:A2 7.19036e-06
80 *548:B2 *90:84 0.000154896
81 *50:8 *403:A2 1.87637e-06
82 *52:10 *403:A2 0
83 *53:6 *90:30 4.04707e-06
84 *53:32 *90:22 4.66703e-05
85 *53:32 *90:76 8.96171e-05
86 *61:10 *512:B1 6.28482e-05
87 *61:10 *90:43 2.41311e-05
88 *61:16 *512:B1 1.72426e-05
89 *61:16 *90:43 4.43868e-06
90 *63:31 *90:30 3.691e-06
91 *63:31 *90:43 2.89349e-05
92 *72:27 *550:C1 3.75755e-05
93 *72:27 *90:84 2.08098e-06
94 *75:14 *90:22 7.19036e-06
95 *75:20 *90:30 3.28387e-05
96 *75:24 *90:30 2.58428e-06
97 *76:84 *550:C1 0
98 *78:24 *550:C1 8.26038e-06
99 *78:24 *90:76 4.82191e-05
100 *78:24 *90:84 4.01773e-05
101 *83:12 *90:22 5.64879e-06
102 *86:28 *90:30 2.49546e-05
*RES
1 *400:ZN *90:10 23.3929 
2 *90:10 *90:22 23.6786 
3 *90:22 *90:30 32.6429 
4 *90:30 *485:A 11.25 
5 *90:30 *90:43 18.8214 
6 *90:43 *512:B1 26.3214 
7 *90:43 *401:A 8.75 
8 *90:22 *452:A 5 
9 *90:10 *90:76 15.4286 
10 *90:76 *90:84 26.6071 
11 *90:84 *431:A 5 
12 *90:84 *403:A2 26.6786 
13 *90:76 *550:C1 14.75 
*END

*D_NET *91 0.000198468
*CONN
*I *494:C2 I *D OAI221_X1
*I *401:ZN O *D INV_X1
*CAP
1 *494:C2 4.61655e-05
2 *401:ZN 4.61655e-05
3 *494:C2 *491:A2 1.22802e-05
4 *494:C2 *300:75 2.56746e-05
5 *499:B *494:C2 6.81816e-05
*RES
1 *401:ZN *494:C2 27.0357 
*END

*D_NET *92 0.00286725
*CONN
*I *403:B1 I *D AOI22_X1
*I *550:B2 I *D AOI221_X1
*I *442:B1 I *D AOI221_X1
*I *452:B1 I *D AOI21_X1
*I *475:B2 I *D AOI221_X1
*I *493:B1 I *D AOI22_X1
*I *486:B1 I *D AOI22_X1
*I *402:ZN O *D NOR2_X1
*CAP
1 *403:B1 6.13245e-05
2 *550:B2 9.07629e-05
3 *442:B1 7.2552e-06
4 *452:B1 0
5 *475:B2 0
6 *493:B1 7.73583e-05
7 *486:B1 4.73252e-05
8 *402:ZN 6.65185e-06
9 *92:85 0.000246933
10 *92:66 0.000342891
11 *92:26 0.000193116
12 *92:24 0.000179194
13 *92:14 0.000183417
14 *92:8 0.000320097
15 *403:B1 *548:B1 0
16 *403:B1 *305:81 7.50163e-06
17 *442:B1 *442:A 2.39679e-06
18 *442:B1 *303:56 0
19 *493:B1 *491:A2 7.52554e-05
20 *493:B1 *494:B1 1.25189e-05
21 *493:B1 *513:A2 2.08098e-06
22 *493:B1 *300:60 5.56778e-06
23 *493:B1 *300:75 9.91248e-06
24 *550:B2 *541:B 1.04195e-05
25 *550:B2 *550:B1 3.49085e-06
26 *550:B2 *550:C2 3.30047e-06
27 *550:B2 *206:23 0
28 *550:B2 *216:16 8.43215e-07
29 *550:B2 *305:68 1.62643e-06
30 *550:B2 *305:81 7.59671e-06
31 *92:8 *146:14 2.47159e-06
32 *92:14 *334:A 1.9695e-05
33 *92:14 *146:14 2.13484e-05
34 *92:24 *363:A2 4.05911e-05
35 *92:24 *453:C1 7.66675e-07
36 *92:24 *474:A1 1.87369e-06
37 *92:24 *475:B1 2.39679e-06
38 *92:24 *188:12 0
39 *92:24 *302:47 2.08098e-06
40 *92:24 *302:71 1.3143e-06
41 *92:24 *318:21 1.52083e-06
42 *92:26 *464:B 9.01846e-07
43 *92:26 *474:A1 1.21774e-06
44 *92:26 *475:B1 3.40142e-05
45 *92:26 *477:B1 2.90423e-05
46 *92:66 *442:A 0.000232743
47 *92:85 *303:56 0
48 *378:A *486:B1 6.0887e-06
49 *378:A *92:26 1.98621e-05
50 *378:B *486:B1 7.59759e-06
51 *379:A2 *92:24 1.78467e-05
52 *384:A1 *92:85 2.52965e-06
53 *384:A2 *92:85 2.16072e-07
54 *384:A3 *403:B1 5.1189e-05
55 *384:A3 *550:B2 9.30855e-05
56 *403:A1 *403:B1 3.65322e-06
57 *403:A2 *403:B1 2.16072e-07
58 *442:B2 *92:85 0
59 *449:A1 *92:24 1.87418e-05
60 *451:A1 *92:24 5.64879e-06
61 *453:C2 *92:24 4.16195e-06
62 *463:A2 *92:26 7.19036e-06
63 *475:C1 *92:26 0
64 *486:A1 *486:B1 2.52965e-06
65 *486:A2 *486:B1 4.05064e-06
66 *486:B2 *486:B1 1.19839e-05
67 *499:B *493:B1 2.44242e-05
68 *511:A2 *493:B1 6.82202e-07
69 *548:B2 *442:B1 1.68643e-06
70 *548:B2 *92:85 8.43215e-07
71 *51:8 *403:B1 2.3767e-06
72 *51:19 *403:B1 2.52514e-05
73 *52:10 *92:85 2.51631e-06
74 *53:15 *92:14 1.26998e-05
75 *53:32 *92:14 3.31225e-05
76 *57:18 *92:26 9.01846e-07
77 *58:10 *486:B1 1.18589e-06
78 *64:20 *493:B1 2.75346e-06
79 *75:14 *92:14 0
80 *76:84 *92:85 7.11458e-05
81 *76:91 *92:85 1.67775e-05
82 *78:24 *92:66 5.89762e-06
83 *78:24 *92:85 5.47151e-05
84 *83:12 *92:14 0
85 *86:28 *92:24 1.40719e-05
86 *90:22 *92:14 4.04937e-05
87 *90:30 *486:B1 0
88 *90:30 *92:14 2.39679e-06
89 *90:30 *92:26 0
90 *90:84 *92:66 5.89762e-06
*RES
1 *402:ZN *92:8 10.8214 
2 *92:8 *92:14 15.0357 
3 *92:14 *92:24 24.1429 
4 *92:24 *92:26 9.25 
5 *92:26 *486:B1 10.75 
6 *92:26 *493:B1 26.6786 
7 *92:24 *475:B2 5 
8 *92:14 *452:B1 5 
9 *92:8 *92:66 24.8071 
10 *92:66 *442:B1 5.75 
11 *92:66 *92:85 18.6071 
12 *92:85 *550:B2 21.5 
13 *92:85 *403:B1 18.7857 
*END

*D_NET *93 0.000619782
*CONN
*I *404:A I *D OAI221_X1
*I *403:ZN O *D AOI22_X1
*CAP
1 *404:A 0.000160109
2 *403:ZN 0.000160109
3 *404:A *360:A2 4.57414e-05
4 *404:A *431:B1 7.72792e-06
5 *404:A *431:B2 2.90423e-05
6 *404:A *441:A2 4.10574e-05
7 *404:A *443:A3 0
8 *404:A *548:B1 1.91498e-06
9 *404:A *216:16 5.48953e-05
10 *404:A *304:50 1.68643e-06
11 *403:A2 *404:A 3.8362e-05
12 *404:B1 *404:A 2.39679e-06
13 *404:C1 *404:A 9.02997e-06
14 *404:C2 *404:A 2.39679e-06
15 *548:A1 *404:A 1.08641e-05
16 *548:B2 *404:A 4.51623e-05
17 *50:8 *404:A 2.86475e-06
18 *77:44 *404:A 0
19 *84:14 *404:A 1.60038e-06
20 *86:18 *404:A 3.30047e-06
21 *90:84 *404:A 1.52083e-06
*RES
1 *403:ZN *404:A 44.3214 
*END

*D_NET *94 0.000335237
*CONN
*I *419:A I *D AOI211_X1
*I *404:ZN O *D OAI221_X1
*CAP
1 *419:A 6.26803e-05
2 *404:ZN 6.26803e-05
3 *419:A *419:B 6.32202e-06
4 *419:A *419:C1 4.66791e-05
5 *419:A *470:C1 5.33077e-05
6 *419:A *102:8 4.16464e-05
7 *419:A *109:10 3.1542e-05
8 *419:A *129:35 1.26998e-05
9 *404:B2 *419:A 1.76793e-05
*RES
1 *404:ZN *419:A 30.3214 
*END

*D_NET *95 0.000106261
*CONN
*I *411:B1 I *D AOI21_X1
*I *405:ZN O *D AOI21_X1
*CAP
1 *411:B1 2.86218e-05
2 *405:ZN 2.86218e-05
3 *411:B1 *411:A 1.36715e-05
4 *411:B1 *419:B 1.25189e-05
5 *411:B1 *435:B 2.07867e-05
6 *411:B1 *470:B 0
7 *411:B1 *229:43 2.04022e-06
*RES
1 *405:ZN *411:B1 23.7857 
*END

*D_NET *96 0.000890287
*CONN
*I *410:B1 I *D OAI21_X1
*I *456:A2 I *D NOR2_X1
*I *406:Z O *D MUX2_X1
*CAP
1 *410:B1 0.000121725
2 *456:A2 5.6362e-05
3 *406:Z 0
4 *96:4 0.000178087
5 *410:B1 *410:A 2.39679e-06
6 *410:B1 *434:A2 5.57651e-06
7 *410:B1 *454:B 7.38152e-06
8 *410:B1 *466:A2 8.90834e-05
9 *410:B1 *472:A 1.045e-05
10 *410:B1 *483:A 0.000103032
11 *410:B1 *483:B1 2.08416e-06
12 *410:B1 *483:B2 2.25753e-05
13 *410:B1 *484:A 1.58306e-05
14 *410:B1 *484:B1 0
15 *410:B1 *229:43 8.43215e-07
16 *410:B1 *229:51 7.40328e-06
17 *410:B1 *314:132 5.42579e-06
18 *456:A2 *456:A1 2.52965e-06
19 *456:A2 *457:B 1.72426e-05
20 *456:A2 *465:A 2.94435e-05
21 *456:A2 *465:B 7.35912e-06
22 *456:A2 *465:S 7.19036e-06
23 *456:A2 *466:A2 2.39679e-06
24 *456:A2 *484:B1 7.72537e-06
25 *456:A2 *501:B1 2.70806e-05
26 *456:A2 *122:8 1.28122e-06
27 *456:A2 *302:83 2.76824e-06
28 *456:A2 *314:97 3.02372e-05
29 *456:A2 *315:126 3.02351e-05
30 *456:A2 *315:137 6.70962e-05
31 *456:A2 *315:150 2.94455e-05
*RES
1 *406:Z *96:4 5 
2 *96:4 *456:A2 24.8571 
3 *96:4 *410:B1 35.1072 
*END

*D_NET *97 0.00161715
*CONN
*I *408:A2 I *D NOR2_X1
*I *409:A2 I *D OR2_X1
*I *412:A2 I *D NOR2_X1
*I *407:ZN O *D NAND3_X1
*CAP
1 *408:A2 0
2 *409:A2 7.72655e-05
3 *412:A2 2.76195e-05
4 *407:ZN 6.63511e-05
5 *97:31 0.00023616
6 *97:8 0.000252865
7 *409:A2 *419:C2 1.18898e-05
8 *409:A2 *457:A 3.09143e-06
9 *409:A2 *488:B1 5.05349e-05
10 *409:A2 *98:6 2.97556e-05
11 *409:A2 *108:6 4.9678e-06
12 *409:A2 *174:16 1.04301e-05
13 *409:A2 *316:53 2.75346e-06
14 *409:A2 *316:68 4.96458e-05
15 *412:A2 *412:A1 3.65918e-05
16 *412:A2 *228:12 7.72792e-06
17 *97:8 *413:A1 2.42701e-05
18 *97:8 *520:B2 0.000201314
19 *97:31 *413:A1 2.65432e-06
20 *97:31 *419:C2 1.67775e-05
21 *97:31 *488:B1 1.43807e-05
22 *97:31 *544:A2 5.85162e-05
23 *97:31 *129:35 9.32853e-05
24 *97:31 *228:10 1.76929e-06
25 *97:31 *302:71 9.21055e-05
26 *404:B2 *97:8 2.3905e-05
27 *404:B2 *97:31 3.43414e-06
28 *404:C2 *97:8 0.000201858
29 *84:14 *412:A2 1.36377e-05
30 *85:31 *409:A2 1.59582e-06
*RES
1 *407:ZN *97:8 24.5 
2 *97:8 *412:A2 14.25 
3 *97:8 *97:31 27.0886 
4 *97:31 *409:A2 17.1071 
5 *97:31 *408:A2 5 
*END

*D_NET *98 0.00155341
*CONN
*I *436:A I *D OAI211_X1
*I *547:A I *D OAI211_X1
*I *410:A I *D OAI21_X1
*I *488:A1 I *D AOI22_X1
*I *473:A1 I *D NAND2_X1
*I *408:ZN O *D NOR2_X1
*CAP
1 *436:A 0
2 *547:A 8.17262e-05
3 *410:A 6.04735e-06
4 *488:A1 0
5 *473:A1 3.09771e-05
6 *408:ZN 0.000110047
7 *98:58 0.000174611
8 *98:37 0.000196924
9 *98:6 4.30321e-05
10 *410:A *411:A 8.43215e-07
11 *410:A *467:B2 7.19036e-06
12 *410:A *229:43 2.16072e-07
13 *473:A1 *488:B1 3.09143e-06
14 *473:A1 *488:B2 4.21902e-05
15 *473:A1 *316:68 2.08098e-06
16 *473:A1 *316:85 0
17 *547:A *405:B1 2.94435e-05
18 *547:A *435:B 2.39679e-06
19 *547:A *467:B2 2.13923e-05
20 *547:A *547:B 2.39679e-06
21 *547:A *547:C1 3.95236e-05
22 *547:A *125:12 1.48346e-05
23 *547:A *229:21 0
24 *547:A *303:79 7.77781e-06
25 *547:A *303:88 2.75346e-06
26 *547:A *315:202 0
27 *98:6 *419:C2 2.73588e-05
28 *98:6 *108:6 2.39679e-06
29 *98:37 *419:C2 9.37037e-05
30 *98:37 *470:B 0.000216707
31 *98:37 *129:35 9.31687e-05
32 *98:37 *316:138 0.000113545
33 *98:58 *411:A 3.37286e-06
34 *98:58 *434:A2 2.37137e-05
35 *98:58 *436:B 3.08837e-05
36 *98:58 *436:C1 1.57238e-06
37 *98:58 *467:B2 3.39516e-05
38 *98:58 *229:21 7.71248e-06
39 *98:58 *229:43 6.07731e-06
40 *98:58 *315:186 2.71395e-05
41 *98:58 *315:202 1.27283e-05
42 *409:A2 *98:6 2.97556e-05
43 *410:B1 *410:A 2.39679e-06
44 *85:31 *473:A1 7.72792e-06
*RES
1 *408:ZN *98:6 7.75 
2 *98:6 *473:A1 18.7143 
3 *98:6 *488:A1 5 
4 *408:ZN *98:37 35.5357 
5 *98:37 *410:A 5.75 
6 *98:37 *98:58 23.4643 
7 *98:58 *547:A 25.75 
8 *98:58 *436:A 5 
*END

*D_NET *99 0.00143847
*CONN
*I *494:B2 I *D OAI221_X1
*I *513:A2 I *D NOR3_X1
*I *457:A I *D AOI211_X1
*I *409:ZN O *D OR2_X1
*CAP
1 *494:B2 0
2 *513:A2 8.48783e-05
3 *457:A 6.72538e-05
4 *409:ZN 0
5 *99:39 0.000264926
6 *99:4 0.000247302
7 *457:A *457:C1 4.14768e-06
8 *457:A *457:C2 1.26991e-05
9 *457:A *458:B 5.51869e-05
10 *457:A *518:C1 1.33944e-05
11 *457:A *108:6 5.99828e-06
12 *457:A *118:12 2.39679e-06
13 *457:A *315:107 1.50708e-05
14 *457:A *315:263 4.79358e-06
15 *457:A *316:53 3.58851e-06
16 *513:A2 *494:A 4.47198e-05
17 *513:A2 *494:B1 4.16464e-05
18 *513:A2 *513:A3 2.42461e-05
19 *513:A2 *300:75 1.26972e-05
20 *513:A2 *315:40 2.75346e-06
21 *513:A2 *315:53 5.29343e-05
22 *99:39 *450:A1 9.21199e-06
23 *99:39 *458:B 1.59867e-05
24 *99:39 *476:A2 9.26282e-06
25 *99:39 *476:A3 5.46453e-05
26 *99:39 *491:A2 2.48234e-05
27 *99:39 *494:A 8.43215e-07
28 *99:39 *502:A2 2.28245e-05
29 *99:39 *502:B1 2.06738e-05
30 *99:39 *503:A2 2.9366e-05
31 *99:39 *519:B 1.08703e-05
32 *99:39 *106:25 4.36039e-05
33 *99:39 *163:12 1.53357e-05
34 *99:39 *174:16 5.41015e-05
35 *99:39 *188:8 0
36 *99:39 *301:54 1.2576e-05
37 *409:A2 *457:A 3.09143e-06
38 *493:B1 *513:A2 2.08098e-06
39 *499:B *513:A2 9.55318e-06
40 *502:A1 *99:39 1.87369e-06
41 *502:B2 *99:39 0
42 *511:A2 *513:A2 6.44704e-05
43 *64:20 *513:A2 2.61041e-05
44 *86:42 *513:A2 2.39679e-06
45 *86:42 *99:39 3.69485e-05
46 *86:44 *513:A2 7.19036e-06
*RES
1 *409:ZN *99:4 5 
2 *99:4 *457:A 24.5 
3 *99:4 *99:39 46.4286 
4 *99:39 *513:A2 29.8214 
5 *99:39 *494:B2 5 
*END

*D_NET *100 0.000236039
*CONN
*I *411:A I *D AOI21_X1
*I *410:ZN O *D OAI21_X1
*CAP
1 *411:A 5.27822e-05
2 *410:ZN 5.27822e-05
3 *411:A *435:B 1.03979e-05
4 *411:A *454:B 4.64525e-05
5 *411:A *470:B 4.16464e-05
6 *411:A *229:43 1.21756e-05
7 *411:A *314:138 1.91498e-06
8 *410:A *411:A 8.43215e-07
9 *411:B1 *411:A 1.36715e-05
10 *98:58 *411:A 3.37286e-06
*RES
1 *410:ZN *411:A 27.7857 
*END

*D_NET *101 0.000225208
*CONN
*I *419:B I *D AOI211_X1
*I *411:ZN O *D AOI21_X1
*CAP
1 *419:B 9.59968e-05
2 *411:ZN 9.59968e-05
3 *419:B *435:B 5.1381e-06
4 *419:B *470:B 0
5 *419:B *230:97 0
6 *419:B *314:138 4.6837e-06
7 *419:B *314:146 0
8 *404:B2 *419:B 2.15488e-06
9 *411:B1 *419:B 1.25189e-05
10 *411:B2 *419:B 2.39679e-06
11 *419:A *419:B 6.32202e-06
*RES
1 *411:ZN *419:B 28.9643 
*END

*D_NET *102 0.000255366
*CONN
*I *419:C1 I *D AOI211_X1
*I *544:A1 I *D NAND2_X1
*I *412:ZN O *D NOR2_X1
*CAP
1 *419:C1 2.48694e-05
2 *544:A1 1.24412e-05
3 *412:ZN 1.5081e-05
4 *102:8 5.23916e-05
5 *419:C1 *419:C2 1.68643e-06
6 *419:C1 *109:10 1.19839e-05
7 *419:C1 *129:35 4.32144e-07
8 *544:A1 *419:C2 1.67775e-05
9 *544:A1 *470:C1 1.19839e-05
10 *544:A1 *544:A2 1.87369e-06
11 *102:8 *544:A2 3.65974e-06
12 *404:B2 *419:C1 9.05228e-06
13 *404:B2 *102:8 4.80783e-06
14 *419:A *419:C1 4.66791e-05
15 *419:A *102:8 4.16464e-05
*RES
1 *412:ZN *102:8 12.2857 
2 *102:8 *544:A1 11.75 
3 *102:8 *419:C1 14.0357 
*END

*D_NET *103 0.000387296
*CONN
*I *450:A2 I *D OR3_X1
*I *430:A1 I *D NOR2_X1
*I *413:ZN O *D NAND4_X1
*CAP
1 *450:A2 4.8524e-06
2 *430:A1 2.38617e-05
3 *413:ZN 0.000105713
4 *103:10 0.000134427
5 *430:A1 *430:A2 1.21774e-06
6 *450:A2 *450:A3 2.75346e-06
7 *450:A2 *503:A3 4.30918e-06
8 *103:10 *453:A 2.76637e-06
9 *103:10 *453:C1 3.23723e-07
10 *103:10 *503:A3 9.65418e-06
11 *453:C2 *103:10 0
12 *75:20 *430:A1 0
13 *75:20 *103:10 0
14 *77:44 *103:10 7.73562e-05
15 *86:18 *103:10 2.00602e-05
*RES
1 *413:ZN *103:10 19.1071 
2 *103:10 *430:A1 7.85714 
3 *103:10 *450:A2 6.25 
*END

*D_NET *104 0.000235443
*CONN
*I *482:A I *D AOI21_X1
*I *415:A I *D AOI21_X1
*I *414:ZN O *D AND2_X1
*CAP
1 *482:A 2.41472e-05
2 *415:A 3.28392e-05
3 *414:ZN 8.71307e-06
4 *104:6 6.56995e-05
5 *415:A *502:B1 0
6 *415:A *230:64 2.39679e-06
7 *415:A *230:97 2.42487e-05
8 *415:A *300:75 2.72171e-06
9 *415:A *300:79 2.94455e-05
10 *415:A *314:74 3.09411e-06
11 *415:A *314:76 7.30645e-06
12 *482:A *230:97 1.86244e-05
13 *482:A *314:76 1.62062e-05
*RES
1 *414:ZN *104:6 5.92857 
2 *104:6 *415:A 19.5357 
3 *104:6 *482:A 8.75 
*END

*D_NET *105 0.000391727
*CONN
*I *457:C1 I *D AOI211_X1
*I *418:B1 I *D OAI21_X1
*I *415:ZN O *D AOI21_X1
*CAP
1 *457:C1 6.82308e-05
2 *418:B1 2.48351e-05
3 *415:ZN 1.37757e-05
4 *105:10 0.000106842
5 *418:B1 *418:A 2.39679e-06
6 *418:B1 *418:B2 2.39679e-06
7 *418:B1 *315:107 1.90208e-06
8 *418:B1 *316:53 2.23871e-06
9 *457:C1 *108:6 4.34401e-05
10 *457:C1 *315:107 7.28612e-05
11 *457:C1 *316:53 0
12 *105:10 *472:B1 4.24402e-05
13 *105:10 *300:75 6.22012e-06
14 *457:A *457:C1 4.14768e-06
*RES
1 *415:ZN *105:10 17.2857 
2 *105:10 *418:B1 7.85714 
3 *105:10 *457:C1 15.4286 
*END

*D_NET *106 0.00149371
*CONN
*I *518:B1 I *D AOI221_X1
*I *450:A3 I *D OR3_X1
*I *513:A3 I *D NOR3_X1
*I *416:ZN O *D NAND2_X1
*CAP
1 *518:B1 3.82812e-05
2 *450:A3 9.32479e-05
3 *513:A3 9.47444e-05
4 *416:ZN 2.27235e-05
5 *106:25 0.000236493
6 *106:8 0.000222432
7 *450:A3 *430:A2 7.49745e-06
8 *450:A3 *503:A3 8.7486e-05
9 *450:A3 *118:12 5.38212e-05
10 *513:A3 *515:A 8.29353e-06
11 *513:A3 *515:B1 6.08869e-06
12 *513:A3 *315:61 3.91587e-05
13 *513:A3 *316:53 2.93163e-05
14 *518:B1 *518:B2 2.75346e-06
15 *518:B1 *518:C2 1.21774e-06
16 *518:B1 *519:A 2.97887e-06
17 *518:B1 *118:12 2.41311e-05
18 *518:B1 *174:16 2.33065e-06
19 *106:8 *416:A2 1.72426e-05
20 *106:8 *315:61 2.33655e-05
21 *106:8 *316:53 1.76415e-05
22 *106:25 *502:A2 6.56007e-06
23 *106:25 *503:A1 0
24 *106:25 *503:A2 0
25 *106:25 *519:A 0.000138157
26 *106:25 *519:B 1.25189e-05
27 *450:A2 *450:A3 2.75346e-06
28 *494:C1 *106:25 3.19164e-07
29 *499:A *106:25 9.43527e-06
30 *499:B *106:25 3.09411e-06
31 *502:A1 *450:A3 1.38574e-05
32 *502:B2 *450:A3 8.08825e-05
33 *502:B2 *518:B1 6.26003e-05
34 *511:A2 *513:A3 2.47811e-05
35 *512:B1 *106:25 3.83453e-06
36 *513:A2 *513:A3 2.42461e-05
37 *64:20 *513:A3 1.52648e-05
38 *85:31 *518:B1 2.52965e-06
39 *86:42 *450:A3 1.80259e-05
40 *99:39 *106:25 4.36039e-05
*RES
1 *416:ZN *106:8 14.3214 
2 *106:8 *513:A3 24.0357 
3 *106:8 *106:25 25.75 
4 *106:25 *450:A3 25.9643 
5 *106:25 *518:B1 15.8929 
*END

*D_NET *107 0.000243076
*CONN
*I *418:A I *D OAI21_X1
*I *417:ZN O *D NAND3_X1
*CAP
1 *418:A 6.48048e-05
2 *417:ZN 6.48048e-05
3 *418:A *415:B2 2.16072e-07
4 *418:A *418:B2 3.46596e-06
5 *418:A *427:A1 2.9331e-06
6 *418:A *117:10 2.21086e-05
7 *418:A *230:10 3.09166e-05
8 *418:A *230:16 2.52965e-06
9 *418:A *230:22 3.45972e-05
10 *418:A *315:70 2.96441e-06
11 *418:A *315:107 1.13379e-05
12 *418:B1 *418:A 2.39679e-06
*RES
1 *417:ZN *418:A 20.6071 
*END

*D_NET *108 0.000958699
*CONN
*I *419:C2 I *D AOI211_X1
*I *488:A2 I *D AOI22_X1
*I *418:ZN O *D OAI21_X1
*CAP
1 *419:C2 0.00015951
2 *488:A2 0
3 *418:ZN 0.000102598
4 *108:6 0.000262108
5 *419:C2 *329:A 1.40196e-06
6 *419:C2 *408:A1 6.84675e-06
7 *419:C2 *470:B 3.19164e-07
8 *419:C2 *470:C1 4.12459e-06
9 *419:C2 *488:B1 1.29329e-05
10 *419:C2 *109:10 1.19839e-05
11 *419:C2 *129:35 1.48092e-05
12 *419:C2 *229:65 4.32144e-07
13 *419:C2 *316:68 4.10371e-05
14 *419:C2 *316:85 1.59582e-06
15 *419:C2 *316:107 6.82202e-07
16 *108:6 *457:C2 7.72792e-06
17 *108:6 *472:B1 0
18 *108:6 *118:12 1.53773e-05
19 *108:6 *174:16 3.95236e-05
20 *108:6 *315:263 0
21 *108:6 *316:68 1.8031e-05
22 *409:A2 *419:C2 1.18898e-05
23 *409:A2 *108:6 4.9678e-06
24 *419:C1 *419:C2 1.68643e-06
25 *457:A *108:6 5.99828e-06
26 *457:C1 *108:6 4.34401e-05
27 *481:B1 *419:C2 3.26599e-05
28 *544:A1 *419:C2 1.67775e-05
29 *97:31 *419:C2 1.67775e-05
30 *98:6 *419:C2 2.73588e-05
31 *98:6 *108:6 2.39679e-06
32 *98:37 *419:C2 9.37037e-05
*RES
1 *418:ZN *108:6 19.25 
2 *108:6 *488:A2 5 
3 *108:6 *419:C2 28.9643 
*END

*D_NET *109 0.000890776
*CONN
*I *420:A I *D INV_X1
*I *419:ZN O *D AOI211_X1
*CAP
1 *420:A 0
2 *419:ZN 0.00034167
3 *109:10 0.00034167
4 *109:10 *362:A1 0
5 *109:10 *397:A1 1.39325e-05
6 *109:10 *397:A3 5.25718e-06
7 *109:10 *413:A1 1.5872e-05
8 *109:10 *442:A 2.80478e-06
9 *109:10 *470:C1 4.11048e-05
10 *109:10 *275:18 1.62643e-06
11 *109:10 *275:33 3.89891e-06
12 *109:10 *277:67 0
13 *109:10 *277:91 8.23414e-07
14 *404:B2 *109:10 1.60377e-06
15 *404:C1 *109:10 0
16 *419:A *109:10 3.1542e-05
17 *419:C1 *109:10 1.19839e-05
18 *419:C2 *109:10 1.19839e-05
19 *441:A1 *109:10 0
20 *554:A2 *109:10 7.54346e-07
21 *46:93 *109:10 3.07768e-05
22 *76:65 *109:10 1.34529e-05
23 *86:18 *109:10 2.00182e-05
*RES
1 *419:ZN *109:10 46.7857 
2 *109:10 *420:A 10 
*END

*D_NET *110 0.000228064
*CONN
*I *554:A3 I *D NOR4_X1
*I *421:A3 I *D NOR3_X1
*I *420:ZN O *D INV_X1
*CAP
1 *554:A3 2.66483e-05
2 *421:A3 0
3 *420:ZN 4.18474e-05
4 *110:8 6.84957e-05
5 *554:A3 *444:C2 1.87905e-05
6 *554:A3 *555:B2 1.11258e-05
7 *554:A3 *193:22 4.7875e-06
8 *110:8 *422:A2 1.25215e-05
9 *110:8 *189:30 1.39839e-06
10 *110:8 *193:22 0
11 *421:A1 *554:A3 1.66988e-05
12 *421:A2 *554:A3 7.19036e-06
13 *421:A2 *110:8 2.39679e-06
14 *554:A2 *554:A3 1.90574e-06
15 *554:A2 *110:8 2.55387e-06
16 *46:93 *110:8 4.5132e-06
17 *48:8 *554:A3 4.79358e-06
18 *48:8 *110:8 2.39679e-06
*RES
1 *420:ZN *110:8 9.85714 
2 *110:8 *421:A3 5 
3 *110:8 *554:A3 19.4643 
*END

*D_NET *111 0.000914495
*CONN
*I *422:A2 I *D NOR2_X1
*I *421:ZN O *D NOR3_X1
*CAP
1 *422:A2 0.000175745
2 *421:ZN 0.000175745
3 *422:A2 result[3] 0
4 *422:A2 result[5] 0
5 *422:A2 *445:A1 2.84765e-06
6 *422:A2 *445:A2 4.12796e-06
7 *422:A2 *555:B2 4.62991e-06
8 *422:A2 *189:30 8.00929e-05
9 *422:A2 *193:22 4.12796e-06
10 *422:A2 *281:8 1.20897e-05
11 *422:A2 *322:66 1.32323e-05
12 *422:A2 *322:85 1.581e-05
13 *422:A2 *322:89 0.000146399
14 *422:A2 *322:104 0.000203423
15 *554:A2 *422:A2 5.54328e-05
16 *46:93 *422:A2 8.27138e-06
17 *110:8 *422:A2 1.25215e-05
*RES
1 *421:ZN *422:A2 48 
*END

*D_NET *112 0.000344214
*CONN
*I *444:C2 I *D AOI211_X1
*I *423:ZN O *D XNOR2_X1
*CAP
1 *444:C2 4.71809e-05
2 *423:ZN 4.71809e-05
3 *444:C2 *554:A4 2.72171e-06
4 *444:C2 *133:14 0.000134953
5 *444:C2 *193:22 4.26902e-05
6 *554:A3 *444:C2 1.87905e-05
7 *46:93 *444:C2 6.55739e-06
8 *48:8 *444:C2 4.41389e-05
*RES
1 *423:ZN *444:C2 29.9286 
*END

*D_NET *113 0.000228527
*CONN
*I *425:A2 I *D NAND2_X1
*I *424:ZN O *D NAND3_X1
*CAP
1 *425:A2 5.83758e-05
2 *424:ZN 5.83758e-05
3 *425:A2 *426:A2 7.16188e-07
4 *425:A2 *444:A 0
5 *425:A2 *303:28 1.57736e-05
6 *46:93 *425:A2 0
7 *76:65 *425:A2 1.49007e-05
8 *78:26 *425:A2 8.03846e-05
*RES
1 *424:ZN *425:A2 28.0714 
*END

*D_NET *114 8.88448e-05
*CONN
*I *426:A2 I *D NOR2_X1
*I *425:ZN O *D NAND2_X1
*CAP
1 *426:A2 3.66944e-05
2 *425:ZN 3.66944e-05
3 *426:A2 *444:A 3.92607e-06
4 *425:A2 *426:A2 7.16188e-07
5 *46:104 *426:A2 2.55331e-06
6 *76:84 *426:A2 8.26038e-06
*RES
1 *425:ZN *426:A2 14.9643 
*END

*D_NET *115 7.34176e-05
*CONN
*I *444:A I *D AOI211_X1
*I *426:ZN O *D NOR2_X1
*CAP
1 *444:A 2.96641e-05
2 *426:ZN 2.96641e-05
3 *444:A *444:B 7.72792e-06
4 *425:A2 *444:A 0
5 *426:A2 *444:A 3.92607e-06
6 *46:93 *444:A 2.43548e-06
*RES
1 *426:ZN *444:A 13.5357 
*END

*D_NET *116 0.000333825
*CONN
*I *500:B1 I *D AOI21_X1
*I *427:ZN O *D NAND2_X1
*CAP
1 *500:B1 9.46894e-05
2 *427:ZN 9.46894e-05
3 *500:B1 *432:A1 0
4 *500:B1 *432:A2 4.26902e-05
5 *500:B1 *433:B 4.80378e-06
6 *500:B1 *500:A 2.75346e-06
7 *500:B1 *500:B2 9.05228e-06
8 *500:B1 *230:64 1.85634e-05
9 *500:B1 *300:79 3.43575e-05
10 *500:B1 *314:70 2.96955e-05
11 *500:B1 *314:74 2.52965e-06
*RES
1 *427:ZN *500:B1 32.5714 
*END

*D_NET *117 0.000787759
*CONN
*I *472:B1 I *D OAI21_X1
*I *429:A2 I *D OR2_X1
*I *428:ZN O *D AOI21_X1
*CAP
1 *472:B1 0.000180901
2 *429:A2 3.22197e-05
3 *428:ZN 2.61863e-05
4 *117:10 0.000239307
5 *429:A2 *502:B1 0
6 *429:A2 *300:75 1.39834e-05
7 *472:B1 *472:B2 3.09411e-06
8 *472:B1 *482:B2 7.72792e-06
9 *472:B1 *502:B1 4.17621e-06
10 *472:B1 *230:97 0.000112375
11 *472:B1 *300:75 1.51752e-06
12 *472:B1 *315:107 3.76945e-05
13 *472:B1 *315:263 3.95211e-05
14 *472:B1 *316:68 0
15 *117:10 *418:B2 1.73151e-05
16 *117:10 *315:70 7.19036e-06
17 *418:A *117:10 2.21086e-05
18 *105:10 *472:B1 4.24402e-05
19 *108:6 *472:B1 0
*RES
1 *428:ZN *117:10 13.5 
2 *117:10 *429:A2 13.6429 
3 *117:10 *472:B1 34.8214 
*END

*D_NET *118 0.0012638
*CONN
*I *430:A2 I *D NOR2_X1
*I *494:B1 I *D OAI221_X1
*I *429:ZN O *D OR2_X1
*CAP
1 *430:A2 7.9105e-05
2 *494:B1 6.6378e-05
3 *429:ZN 0.00013622
4 *118:12 0.000281703
5 *430:A2 *476:A3 1.58752e-05
6 *494:B1 *494:A 5.11191e-06
7 *118:12 *458:B 0.000194422
8 *118:12 *518:C1 4.92863e-06
9 *118:12 *163:12 3.57546e-05
10 *118:12 *301:54 0
11 *118:12 *316:53 7.16735e-05
12 *387:A2 *430:A2 1.54649e-06
13 *387:A2 *494:B1 3.30047e-06
14 *430:A1 *430:A2 1.21774e-06
15 *450:A3 *430:A2 7.49745e-06
16 *450:A3 *118:12 5.38212e-05
17 *457:A *118:12 2.39679e-06
18 *493:B1 *494:B1 1.25189e-05
19 *499:B *494:B1 5.46453e-05
20 *502:A1 *494:B1 2.97556e-05
21 *502:A1 *118:12 3.34509e-06
22 *502:B2 *118:12 5.10087e-06
23 *511:A2 *494:B1 6.71156e-06
24 *513:A2 *494:B1 4.16464e-05
25 *518:A *118:12 2.30002e-06
26 *518:B1 *118:12 2.41311e-05
27 *75:20 *430:A2 9.62051e-07
28 *76:10 *430:A2 1.1425e-05
29 *77:38 *430:A2 6.32202e-06
30 *86:42 *430:A2 7.19036e-06
31 *86:42 *494:B1 6.38738e-05
32 *86:42 *118:12 1.66988e-05
33 *86:44 *494:B1 8.43215e-07
34 *108:6 *118:12 1.53773e-05
*RES
1 *429:ZN *118:12 38.2857 
2 *118:12 *494:B1 26.7143 
3 *118:12 *430:A2 24.7857 
*END

*D_NET *119 0.000992274
*CONN
*I *442:A I *D AOI221_X1
*I *430:ZN O *D NOR2_X1
*CAP
1 *442:A 0.000272884
2 *430:ZN 0.000272884
3 *442:A *362:A2 4.62738e-05
4 *442:A *188:12 1.27446e-05
5 *442:B1 *442:A 2.39679e-06
6 *52:8 *442:A 4.87096e-06
7 *77:38 *442:A 8.93813e-05
8 *77:44 *442:A 3.23723e-07
9 *86:28 *442:A 1.23137e-05
10 *86:92 *442:A 4.26527e-05
11 *90:76 *442:A 0
12 *92:66 *442:A 0.000232743
13 *109:10 *442:A 2.80478e-06
*RES
1 *430:ZN *442:A 49.0071 
*END

*D_NET *120 7.06437e-05
*CONN
*I *443:A1 I *D NAND4_X1
*I *431:ZN O *D OAI21_X1
*CAP
1 *443:A1 2.42344e-05
2 *431:ZN 2.42344e-05
3 *443:A1 *431:B1 8.94258e-06
4 *443:A1 *443:A3 1.32323e-05
*RES
1 *431:ZN *443:A1 13.6071 
*END

*D_NET *121 0.000221265
*CONN
*I *500:B2 I *D AOI21_X1
*I *432:ZN O *D NAND2_X1
*CAP
1 *500:B2 5.42339e-05
2 *432:ZN 5.42339e-05
3 *500:B2 *432:A1 4.00561e-05
4 *500:B2 *432:A2 2.42461e-05
5 *500:B2 *433:A 2.75346e-06
6 *500:B2 *433:B 1.83852e-05
7 *500:B2 *502:B1 0
8 *500:B2 *300:79 1.66988e-05
9 *500:B2 *314:74 1.60494e-06
10 *500:B1 *500:B2 9.05228e-06
*RES
1 *432:ZN *500:B2 27.8929 
*END

*D_NET *122 0.000837783
*CONN
*I *434:A2 I *D OR2_X1
*I *471:A2 I *D NAND2_X1
*I *433:Z O *D MUX2_X1
*CAP
1 *434:A2 0.000116977
2 *471:A2 0
3 *433:Z 0.00013916
4 *122:8 0.000256137
5 *434:A2 *467:B1 7.72792e-06
6 *434:A2 *467:B2 5.37755e-05
7 *434:A2 *468:A1 2.92302e-05
8 *434:A2 *468:A2 2.61469e-06
9 *434:A2 *471:A1 8.43215e-07
10 *434:A2 *483:A 3.82213e-05
11 *434:A2 *315:169 2.61827e-06
12 *434:A2 *315:186 2.07819e-05
13 *122:8 *465:B 7.72537e-06
14 *122:8 *465:S 6.48216e-07
15 *122:8 *466:A1 7.19036e-06
16 *122:8 *466:A2 2.0489e-05
17 *122:8 *471:A1 2.52965e-06
18 *122:8 *500:A 3.47527e-05
19 *122:8 *501:A 2.20999e-05
20 *122:8 *501:B1 0
21 *122:8 *315:169 4.36905e-05
22 *410:B1 *434:A2 5.57651e-06
23 *456:A2 *122:8 1.28122e-06
24 *98:58 *434:A2 2.37137e-05
*RES
1 *433:Z *122:8 24.8572 
2 *122:8 *471:A2 5 
3 *122:8 *434:A2 23.2857 
*END

*D_NET *123 0.000111507
*CONN
*I *436:B I *D OAI211_X1
*I *434:ZN O *D OR2_X1
*CAP
1 *436:B 2.2414e-05
2 *434:ZN 2.2414e-05
3 *436:B *229:21 3.5795e-05
4 *98:58 *436:B 3.08837e-05
*RES
1 *434:ZN *436:B 14.1786 
*END

*D_NET *124 0.000330148
*CONN
*I *436:C1 I *D OAI211_X1
*I *547:C1 I *D OAI211_X1
*I *435:Z O *D MUX2_X1
*CAP
1 *436:C1 3.62287e-05
2 *547:C1 4.044e-05
3 *435:Z 0
4 *124:6 7.66687e-05
5 *436:C1 *438:A1 0
6 *436:C1 *469:A1 8.33759e-07
7 *436:C1 *125:12 2.4656e-05
8 *436:C1 *229:21 2.55787e-06
9 *436:C1 *315:202 2.39679e-06
10 *436:C1 *315:215 2.30003e-05
11 *436:C1 *315:232 3.34324e-06
12 *547:C1 *469:A1 8.00448e-06
13 *547:C1 *547:C2 8.43215e-07
14 *547:C1 *125:12 5.51869e-05
15 *547:C1 *303:79 1.48917e-05
16 *547:A *547:C1 3.95236e-05
17 *98:58 *436:C1 1.57238e-06
*RES
1 *435:Z *124:6 10 
2 *124:6 *547:C1 16.7143 
3 *124:6 *436:C1 14.7857 
*END

*D_NET *125 0.000804542
*CONN
*I *443:A2 I *D NAND4_X1
*I *436:ZN O *D OAI211_X1
*CAP
1 *443:A2 0
2 *436:ZN 0.000249384
3 *125:12 0.000249384
4 *125:12 *405:B1 9.66826e-06
5 *125:12 *431:B1 9.91248e-06
6 *125:12 *441:A2 5.05145e-05
7 *125:12 *443:A3 5.74297e-05
8 *125:12 *444:B 7.72537e-06
9 *125:12 *469:A1 3.02683e-06
10 *125:12 *129:10 1.60424e-05
11 *125:12 *314:146 2.00032e-05
12 *125:12 *314:177 1.55645e-05
13 *404:C1 *125:12 3.82563e-06
14 *436:C1 *125:12 2.4656e-05
15 *441:A1 *125:12 6.50581e-06
16 *547:A *125:12 1.48346e-05
17 *547:C1 *125:12 5.51869e-05
18 *77:44 *125:12 8.02974e-06
19 *84:14 *125:12 2.84765e-06
20 *86:18 *125:12 0
*RES
1 *436:ZN *125:12 48 
2 *125:12 *443:A2 5 
*END

*D_NET *126 0.000654039
*CONN
*I *438:A2 I *D NAND2_X1
*I *467:B2 I *D AOI21_X1
*I *437:Z O *D MUX2_X1
*CAP
1 *438:A2 0
2 *467:B2 0.000112187
3 *437:Z 4.36805e-05
4 *126:14 0.000155867
5 *467:B2 *405:B1 3.89132e-05
6 *467:B2 *435:B 1.68643e-06
7 *467:B2 *438:A1 4.12459e-06
8 *467:B2 *547:B 2.39679e-06
9 *467:B2 *315:186 1.61658e-05
10 *467:B2 *315:202 4.02344e-05
11 *467:B2 *315:215 3.73352e-05
12 *126:14 *438:A1 8.43215e-07
13 *126:14 *545:A 2.80204e-06
14 *126:14 *545:B1 4.52612e-06
15 *126:14 *545:B2 3.49085e-06
16 *126:14 *546:A1 5.87541e-05
17 *126:14 *546:A2 4.025e-07
18 *126:14 *547:B 1.21711e-05
19 *126:14 *303:79 2.14856e-06
20 *410:A *467:B2 7.19036e-06
21 *434:A2 *467:B2 5.37755e-05
22 *547:A *467:B2 2.13923e-05
23 *98:58 *467:B2 3.39516e-05
*RES
1 *437:Z *126:14 21.4643 
2 *126:14 *467:B2 23.1072 
3 *126:14 *438:A2 5 
*END

*D_NET *127 0.000169238
*CONN
*I *440:A I *D OAI21_X1
*I *438:ZN O *D NAND2_X1
*CAP
1 *440:A 3.55637e-05
2 *438:ZN 3.55637e-05
3 *440:A *469:A1 3.81748e-05
4 *440:A *546:A1 5.77197e-06
5 *440:A *547:B 1.04526e-05
6 *440:A *549:A2 4.21902e-05
7 *440:A *315:232 1.52083e-06
*RES
1 *438:ZN *440:A 25.6786 
*END

*D_NET *128 0.000630796
*CONN
*I *546:A1 I *D NAND2_X1
*I *440:B1 I *D OAI21_X1
*I *469:A2 I *D NOR2_X1
*I *439:ZN O *D NAND2_X1
*CAP
1 *546:A1 7.30461e-05
2 *440:B1 1.45798e-05
3 *469:A2 2.2307e-05
4 *439:ZN 2.61681e-05
5 *128:19 0.000146909
6 *128:8 0.000107759
7 *440:B1 *303:79 1.35364e-05
8 *469:A2 *469:A1 1.21774e-06
9 *469:A2 *549:A1 1.21774e-06
10 *469:A2 *549:A2 6.82202e-07
11 *546:A1 *438:A1 0
12 *546:A1 *545:A 1.12864e-05
13 *546:A1 *545:B2 3.69236e-06
14 *546:A1 *546:A2 2.75346e-06
15 *546:A1 *547:B 2.87993e-05
16 *546:A1 *547:C2 1.33704e-05
17 *546:A1 *549:A2 2.72417e-06
18 *546:A1 *303:69 2.84765e-06
19 *546:A1 *303:79 0
20 *546:A1 *304:78 2.04312e-06
21 *128:19 *547:C2 9.77674e-06
22 *128:19 *549:A2 2.64334e-05
23 *128:19 *303:69 3.22985e-05
24 *404:C1 *469:A2 0
25 *404:C1 *128:8 0
26 *411:B2 *440:B1 2.2822e-05
27 *440:A *546:A1 5.77197e-06
28 *80:10 *469:A2 0
29 *80:10 *128:8 0
30 *126:14 *546:A1 5.87541e-05
*RES
1 *439:ZN *128:8 7.85714 
2 *128:8 *469:A2 7.25 
3 *128:8 *128:19 13.3929 
4 *128:19 *440:B1 12.25 
5 *128:19 *546:A1 20.7143 
*END

*D_NET *129 0.00150654
*CONN
*I *498:A1 I *D AND2_X1
*I *441:A2 I *D NAND2_X1
*I *440:ZN O *D OAI21_X1
*CAP
1 *498:A1 0
2 *441:A2 9.84788e-05
3 *440:ZN 3.90254e-05
4 *129:35 0.000186418
5 *129:10 0.000323922
6 *441:A2 *431:B1 1.52083e-06
7 *441:A2 *443:A3 7.02617e-06
8 *441:A2 *469:A1 8.39211e-06
9 *441:A2 *548:A2 0.000119619
10 *441:A2 *549:A3 3.01743e-06
11 *441:A2 *216:16 0
12 *129:10 *469:A1 3.01962e-05
13 *129:35 *470:C1 1.75902e-05
14 *129:35 *503:A3 3.82563e-06
15 *129:35 *519:A 2.39679e-06
16 *129:35 *519:C1 4.32144e-07
17 *129:35 *519:C2 5.64879e-06
18 *129:35 *549:A1 0
19 *129:35 *143:12 1.40196e-06
20 *129:35 *159:10 9.33152e-05
21 *129:35 *182:6 1.26998e-05
22 *129:35 *229:59 6.38328e-07
23 *129:35 *229:65 4.48548e-05
24 *129:35 *302:71 2.08635e-05
25 *404:A *441:A2 4.10574e-05
26 *419:A *129:35 1.26998e-05
27 *419:C1 *129:35 4.32144e-07
28 *419:C2 *129:35 1.48092e-05
29 *455:A *129:35 2.04239e-05
30 *80:10 *129:35 0.000141842
31 *90:84 *441:A2 9.85721e-07
32 *97:31 *129:35 9.32853e-05
33 *98:37 *129:35 9.31687e-05
34 *125:12 *441:A2 5.05145e-05
35 *125:12 *129:10 1.60424e-05
*RES
1 *440:ZN *129:10 15.4107 
2 *129:10 *441:A2 26.0536 
3 *129:10 *129:35 46.8929 
4 *129:35 *498:A1 5 
*END

*D_NET *130 0.000325958
*CONN
*I *443:A3 I *D NAND4_X1
*I *441:ZN O *D NAND2_X1
*CAP
1 *443:A3 0.000111023
2 *441:ZN 0.000111023
3 *443:A3 *431:B1 3.23723e-07
4 *443:A3 *431:B2 3.93732e-06
5 *443:A3 *443:A4 7.19036e-06
6 *404:A *443:A3 0
7 *441:A1 *443:A3 1.88334e-06
8 *441:A2 *443:A3 7.02617e-06
9 *443:A1 *443:A3 1.32323e-05
10 *77:44 *443:A3 6.38328e-06
11 *86:18 *443:A3 6.50581e-06
12 *125:12 *443:A3 5.74297e-05
*RES
1 *441:ZN *443:A3 34.4286 
*END

*D_NET *131 9.67995e-05
*CONN
*I *443:A4 I *D NAND4_X1
*I *442:ZN O *D AOI221_X1
*CAP
1 *443:A4 1.17659e-05
2 *442:ZN 1.17659e-05
3 *443:A4 *216:16 2.94435e-05
4 *443:A3 *443:A4 7.19036e-06
5 *548:B2 *443:A4 2.94435e-05
6 *77:44 *443:A4 7.19036e-06
*RES
1 *442:ZN *443:A4 22.3571 
*END

*D_NET *132 0.000803453
*CONN
*I *444:B I *D AOI211_X1
*I *443:ZN O *D NAND4_X1
*CAP
1 *444:B 0.000116013
2 *443:ZN 0.000116013
3 *444:B *431:B1 3.13279e-05
4 *444:B *551:A 0
5 *444:B *319:8 4.37312e-05
6 *444:B *319:19 1.39687e-05
7 *382:B2 *444:B 5.46411e-05
8 *424:A3 *444:B 4.18985e-05
9 *426:A1 *444:B 4.53606e-05
10 *444:A *444:B 7.72792e-06
11 *46:93 *444:B 8.26038e-06
12 *46:104 *444:B 2.75346e-06
13 *71:8 *444:B 0.000104247
14 *72:27 *444:B 1.3143e-06
15 *77:44 *444:B 3.09143e-06
16 *90:84 *444:B 0.00020538
17 *125:12 *444:B 7.72537e-06
*RES
1 *443:ZN *444:B 42.1072 
*END

*D_NET *133 0.00113583
*CONN
*I *555:B1 I *D AOI21_X1
*I *445:A2 I *D NOR2_X1
*I *444:ZN O *D AOI211_X1
*CAP
1 *555:B1 0
2 *445:A2 0.000110177
3 *444:ZN 0.000140281
4 *133:14 0.000250458
5 *445:A2 overflow 1.04048e-06
6 *445:A2 *445:A1 1.2122e-05
7 *445:A2 *555:A 1.25215e-05
8 *445:A2 *555:B2 3.33292e-05
9 *445:A2 *594:CK 9.01644e-05
10 *445:A2 *221:18 2.94182e-05
11 *445:A2 *322:89 0.000133405
12 *445:A2 *322:128 0
13 *445:A2 *324:69 2.08098e-06
14 *133:14 *349:A2 1.52648e-05
15 *133:14 *554:A4 4.46014e-06
16 *133:14 *555:A 2.75346e-06
17 *133:14 *555:B2 9.71532e-06
18 *133:14 *247:20 5.56936e-06
19 *133:14 *303:28 5.21932e-05
20 *133:14 *319:8 1.11357e-05
21 *133:14 *322:128 0
22 *133:14 *328:35 9.18014e-06
23 *421:A1 *133:14 1.3143e-06
24 *421:A2 *133:14 4.7875e-06
25 *422:A2 *445:A2 4.12796e-06
26 *444:C2 *133:14 0.000134953
27 *597:D *445:A2 3.52625e-05
28 *7:10 *133:14 1.78436e-06
29 *46:93 *133:14 2.83315e-05
*RES
1 *444:ZN *133:14 36.5357 
2 *133:14 *445:A2 33.6429 
3 *133:14 *555:B1 5 
*END

*D_NET *134 0.000375157
*CONN
*I *447:A3 I *D NAND3_X1
*I *446:ZN O *D OAI21_X1
*CAP
1 *447:A3 4.70852e-05
2 *446:ZN 4.70852e-05
3 *447:A3 *348:A2 2.4406e-05
4 *447:A3 *348:A3 0.000144818
5 *447:A3 *446:B1 9.22979e-05
6 *447:A3 *492:A2 0
7 *447:A3 *576:CK 0
8 *447:A3 *188:12 1.14365e-05
9 *447:A3 *188:22 4.43868e-06
10 *447:A3 *247:20 2.08098e-06
11 *46:26 *447:A3 1.50869e-06
*RES
1 *446:ZN *447:A3 29.75 
*END

*D_NET *135 8.53202e-05
*CONN
*I *459:A1 I *D AND3_X1
*I *447:ZN O *D NAND3_X1
*CAP
1 *459:A1 2.01307e-05
2 *447:ZN 2.01307e-05
3 *459:A1 *447:A1 2.39679e-06
4 *459:A1 *459:A2 1.30565e-05
5 *459:A1 *553:A1 2.75346e-06
6 *459:A1 *164:22 1.90208e-06
7 *459:A1 *177:22 1.32323e-05
8 *46:16 *459:A1 1.17178e-05
*RES
1 *447:ZN *459:A1 13.25 
*END

*D_NET *136 6.35823e-05
*CONN
*I *449:A3 I *D NAND3_X1
*I *448:ZN O *D OAI21_X1
*CAP
1 *449:A3 2.48283e-05
2 *448:ZN 2.48283e-05
3 *449:A3 *164:22 0
4 *448:A *449:A3 2.39679e-06
5 *448:B1 *449:A3 3.38111e-06
6 *477:C1 *449:A3 0
7 *68:6 *449:A3 9.57492e-07
8 *76:50 *449:A3 7.19036e-06
*RES
1 *448:ZN *449:A3 12.8571 
*END

*D_NET *137 0.000311418
*CONN
*I *459:A2 I *D AND3_X1
*I *449:ZN O *D NAND3_X1
*CAP
1 *459:A2 8.08744e-05
2 *449:ZN 8.08744e-05
3 *459:A2 *146:14 2.75346e-06
4 *459:A2 *164:22 3.22252e-05
5 *459:A2 *177:22 1.52083e-06
6 *459:A2 *188:12 1.11218e-05
7 *459:A2 *277:20 4.69702e-07
8 *459:A2 *318:8 1.59409e-05
9 *459:A2 *318:21 7.18184e-06
10 *379:A3 *459:A2 1.25215e-05
11 *448:A *459:A2 4.18985e-05
12 *449:A1 *459:A2 2.39679e-06
13 *459:A1 *459:A2 1.30565e-05
14 *474:A3 *459:A2 4.45767e-06
15 *76:65 *459:A2 4.12459e-06
*RES
1 *449:ZN *459:A2 31.4643 
*END

*D_NET *138 0.000215621
*CONN
*I *453:A I *D OAI211_X1
*I *450:ZN O *D OR3_X1
*CAP
1 *453:A 6.11841e-05
2 *450:ZN 6.11841e-05
3 *453:A *453:B 4.92435e-06
4 *453:A *453:C1 1.32323e-05
5 *453:A *458:A 1.0576e-05
6 *453:A *458:B 0
7 *453:A *503:A3 3.47272e-05
8 *86:18 *453:A 1.74934e-05
9 *86:28 *453:A 9.53289e-06
10 *103:10 *453:A 2.76637e-06
*RES
1 *450:ZN *453:A 27.8214 
*END

*D_NET *139 8.44183e-05
*CONN
*I *453:B I *D OAI211_X1
*I *451:ZN O *D OR2_X1
*CAP
1 *453:B 2.8023e-05
2 *451:ZN 2.8023e-05
3 *453:B *453:C1 9.52324e-06
4 *453:B *458:A 1.39582e-06
5 *453:B *302:71 7.61122e-06
6 *453:A *453:B 4.92435e-06
7 *453:C2 *453:B 3.48838e-06
8 *86:28 *453:B 1.4293e-06
*RES
1 *451:ZN *453:B 23.6429 
*END

*D_NET *140 0.000193093
*CONN
*I *453:C1 I *D OAI211_X1
*I *452:ZN O *D AOI21_X1
*CAP
1 *453:C1 5.39871e-05
2 *452:ZN 5.39871e-05
3 *451:A1 *453:C1 3.60384e-06
4 *453:A *453:C1 1.32323e-05
5 *453:B *453:C1 9.52324e-06
6 *453:C2 *453:C1 2.59484e-06
7 *53:6 *453:C1 3.65322e-06
8 *75:20 *453:C1 2.87703e-06
9 *86:28 *453:C1 4.08159e-05
10 *90:30 *453:C1 7.72792e-06
11 *92:24 *453:C1 7.66675e-07
12 *103:10 *453:C1 3.23723e-07
*RES
1 *452:ZN *453:C1 28.1786 
*END

*D_NET *141 0.000249662
*CONN
*I *458:A I *D AOI211_X1
*I *453:ZN O *D OAI211_X1
*CAP
1 *458:A 6.21703e-05
2 *453:ZN 6.21703e-05
3 *458:A *458:B 2.75346e-06
4 *458:A *458:C1 3.15692e-05
5 *458:A *503:A3 7.2962e-06
6 *458:A *519:C1 1.39839e-06
7 *458:A *143:12 2.16072e-07
8 *458:A *146:14 2.16072e-07
9 *458:A *203:8 8.43215e-07
10 *458:A *302:71 4.04789e-05
11 *453:A *458:A 1.0576e-05
12 *453:B *458:A 1.39582e-06
13 *458:C2 *458:A 3.19164e-07
14 *77:38 *458:A 2.82592e-05
*RES
1 *453:ZN *458:A 28.9643 
*END

*D_NET *142 0.000272185
*CONN
*I *483:B2 I *D AOI21_X1
*I *455:B I *D MUX2_X1
*I *454:Z O *D MUX2_X1
*CAP
1 *483:B2 3.92391e-05
2 *455:B 5.80237e-05
3 *454:Z 1.01899e-05
4 *142:8 0.000107453
5 *455:B *143:12 6.21255e-06
6 *455:B *229:51 4.98258e-06
7 *455:B *302:71 0
8 *455:B *314:132 3.69646e-06
9 *483:B2 *454:B 2.39679e-06
10 *483:B2 *483:A 1.90208e-06
11 *483:B2 *483:B1 2.39679e-06
12 *483:B2 *302:109 5.11118e-06
13 *483:B2 *314:132 7.81367e-06
14 *142:8 *229:51 1.91667e-07
15 *142:8 *316:138 0
16 *410:B1 *483:B2 2.25753e-05
*RES
1 *454:Z *142:8 10.9286 
2 *142:8 *455:B 15.6786 
3 *142:8 *483:B2 15.75 
*END

*D_NET *143 0.000602032
*CONN
*I *458:C1 I *D AOI211_X1
*I *519:C1 I *D AOI211_X1
*I *455:Z O *D MUX2_X1
*CAP
1 *458:C1 2.4049e-05
2 *519:C1 7.10968e-06
3 *455:Z 0.000150599
4 *143:12 0.000181758
5 *458:C1 *458:B 2.75346e-06
6 *458:C1 *503:A3 8.1183e-06
7 *458:C1 *519:C2 3.02351e-05
8 *458:C1 *302:71 8.1183e-06
9 *519:C1 *519:B 2.39679e-06
10 *143:12 *394:A1 1.29867e-05
11 *143:12 *182:6 2.87703e-06
12 *143:12 *203:8 2.88665e-05
13 *143:12 *229:51 0
14 *143:12 *229:59 9.5257e-06
15 *143:12 *302:71 4.58352e-05
16 *455:B *143:12 6.21255e-06
17 *458:A *458:C1 3.15692e-05
18 *458:A *519:C1 1.39839e-06
19 *458:A *143:12 2.16072e-07
20 *458:C2 *458:C1 3.65322e-06
21 *458:C2 *143:12 3.22252e-05
22 *481:A *143:12 5.86875e-06
23 *83:23 *143:12 3.82563e-06
24 *129:35 *519:C1 4.32144e-07
25 *129:35 *143:12 1.40196e-06
*RES
1 *455:Z *143:12 33.4286 
2 *143:12 *519:C1 5.75 
3 *143:12 *458:C1 19.3929 
*END

*D_NET *144 0.000189293
*CONN
*I *457:B I *D AOI211_X1
*I *456:ZN O *D NOR2_X1
*CAP
1 *457:B 4.30679e-05
2 *456:ZN 4.30679e-05
3 *457:B *450:A1 2.14667e-06
4 *457:B *457:C2 4.24381e-05
5 *457:B *302:83 3.49085e-06
6 *457:B *315:126 3.59502e-05
7 *457:B *315:280 1.88929e-06
8 *456:A2 *457:B 1.72426e-05
*RES
1 *456:ZN *457:B 25.6786 
*END

*D_NET *145 0.000813308
*CONN
*I *458:B I *D AOI211_X1
*I *457:ZN O *D AOI211_X1
*CAP
1 *458:B 0.000165289
2 *457:ZN 0.000165289
3 *458:B *457:C2 5.43932e-05
4 *458:B *503:A3 0
5 *458:B *518:C1 4.62991e-06
6 *458:B *519:B 0
7 *458:B *163:12 0.000131824
8 *458:B *174:16 1.61249e-06
9 *458:B *188:8 1.50098e-05
10 *453:A *458:B 0
11 *457:A *458:B 5.51869e-05
12 *458:A *458:B 2.75346e-06
13 *458:C1 *458:B 2.75346e-06
14 *86:18 *458:B 4.15825e-06
15 *99:39 *458:B 1.59867e-05
16 *118:12 *458:B 0.000194422
*RES
1 *457:ZN *458:B 45.75 
*END

*D_NET *146 0.00102814
*CONN
*I *459:A3 I *D AND3_X1
*I *458:ZN O *D AOI211_X1
*CAP
1 *459:A3 0
2 *458:ZN 0.000199538
3 *146:14 0.000199538
4 *146:14 *334:A 3.602e-06
5 *146:14 *460:A2 1.83411e-06
6 *146:14 *553:A1 2.54672e-06
7 *146:14 *203:8 0
8 *146:14 *277:20 2.45416e-05
9 *146:14 *302:36 8.00908e-05
10 *146:14 *302:47 0.000145068
11 *146:14 *302:71 0.000279539
12 *458:A *146:14 2.16072e-07
13 *458:C2 *146:14 3.41922e-05
14 *459:A2 *146:14 2.75346e-06
15 *46:10 *146:14 2.22714e-05
16 *46:16 *146:14 8.58925e-06
17 *92:8 *146:14 2.47159e-06
18 *92:14 *146:14 2.13484e-05
*RES
1 *458:ZN *146:14 46.2143 
2 *146:14 *459:A3 5 
*END

*D_NET *147 0.000814199
*CONN
*I *460:A2 I *D NOR2_X1
*I *553:A1 I *D NAND4_X1
*I *459:ZN O *D AND3_X1
*CAP
1 *460:A2 0.000245641
2 *553:A1 1.1792e-05
3 *459:ZN 1.34721e-05
4 *147:10 0.000270905
5 *460:A2 result[4] 1.32576e-05
6 *460:A2 *478:A1 2.39679e-06
7 *460:A2 *478:A2 3.46596e-06
8 *460:A2 *492:A2 0
9 *460:A2 *276:12 2.79484e-05
10 *460:A2 *277:20 5.43035e-06
11 *460:A2 *302:25 0
12 *460:A2 *302:36 0
13 *147:10 *302:36 6.76399e-05
14 *147:10 *318:8 6.76399e-05
15 *459:A1 *553:A1 2.75346e-06
16 *570:D *460:A2 1.10186e-05
17 *595:D *460:A2 0
18 *596:D *460:A2 1.045e-05
19 *46:16 *460:A2 3.74445e-05
20 *46:16 *553:A1 1.85634e-05
21 *146:14 *460:A2 1.83411e-06
22 *146:14 *553:A1 2.54672e-06
*RES
1 *459:ZN *147:10 18.6429 
2 *147:10 *553:A1 6.75 
3 *147:10 *460:A2 42.5714 
*END

*D_NET *148 7.61116e-05
*CONN
*I *462:B I *D XNOR2_X1
*I *461:Z O *D XOR2_X1
*CAP
1 *462:B 1.42286e-05
2 *461:Z 1.42286e-05
3 *462:B *301:32 3.30415e-05
4 *46:26 *462:B 1.46129e-05
*RES
1 *461:Z *462:B 13 
*END

*D_NET *149 0.000402637
*CONN
*I *477:C2 I *D AOI221_X1
*I *462:ZN O *D XNOR2_X1
*CAP
1 *477:C2 8.48643e-05
2 *462:ZN 8.48643e-05
3 *477:C2 *177:22 6.88381e-07
4 *477:C2 *277:10 0.000131278
5 *448:B1 *477:C2 6.87378e-06
6 *477:C1 *477:C2 1.1637e-05
7 *479:A *477:C2 9.57492e-06
8 *46:26 *477:C2 6.71655e-05
9 *76:24 *477:C2 5.69079e-06
*RES
1 *462:ZN *477:C2 34.2143 
*END

*D_NET *150 0.000263501
*CONN
*I *475:B1 I *D AOI221_X1
*I *464:B I *D XNOR2_X1
*I *463:ZN O *D NOR2_X1
*CAP
1 *475:B1 2.21263e-05
2 *464:B 4.1699e-05
3 *463:ZN 8.71307e-06
4 *150:6 7.25383e-05
5 *464:B *477:B1 4.92863e-06
6 *464:B *163:12 3.12145e-06
7 *378:A *464:B 1.25189e-05
8 *463:A2 *464:B 1.55619e-05
9 *464:A *464:B 1.73125e-05
10 *475:C1 *475:B1 4.15369e-06
11 *57:8 *464:B 6.32461e-06
12 *57:18 *464:B 7.72537e-06
13 *68:6 *464:B 4.68638e-06
14 *86:42 *475:B1 4.77786e-06
15 *92:24 *475:B1 2.39679e-06
16 *92:26 *464:B 9.01846e-07
17 *92:26 *475:B1 3.40142e-05
*RES
1 *463:ZN *150:6 5.92857 
2 *150:6 *464:B 20.7143 
3 *150:6 *475:B1 8.25 
*END

*D_NET *151 0.000461647
*CONN
*I *477:B1 I *D AOI221_X1
*I *464:ZN O *D XNOR2_X1
*CAP
1 *477:B1 9.74566e-05
2 *464:ZN 9.74566e-05
3 *477:B1 *366:A2 0
4 *477:B1 *163:12 0.000187193
5 *477:B1 *177:22 4.43086e-06
6 *477:B1 *277:10 3.86109e-06
7 *477:B1 *317:8 0
8 *464:B *477:B1 4.92863e-06
9 *57:8 *477:B1 6.84175e-06
10 *57:18 *477:B1 2.90423e-05
11 *76:24 *477:B1 1.39417e-06
12 *92:26 *477:B1 2.90423e-05
*RES
1 *464:ZN *477:B1 35.0714 
*END

*D_NET *152 0.000542863
*CONN
*I *466:A2 I *D NAND2_X1
*I *501:B1 I *D AOI21_X1
*I *465:Z O *D MUX2_X1
*CAP
1 *466:A2 4.87695e-05
2 *501:B1 7.63453e-05
3 *465:Z 4.04317e-05
4 *152:8 0.000165546
5 *466:A2 *466:A1 2.52965e-06
6 *501:B1 *465:S 9.77674e-06
7 *501:B1 *501:A 1.21774e-06
8 *501:B1 *501:B2 4.07669e-05
9 *501:B1 *301:78 3.93732e-06
10 *501:B1 *314:97 8.64288e-07
11 *501:B1 *314:132 2.83434e-06
12 *152:8 *465:B 1.01993e-05
13 *152:8 *315:150 5.94167e-07
14 *410:B1 *466:A2 8.90834e-05
15 *456:A2 *466:A2 2.39679e-06
16 *456:A2 *501:B1 2.70806e-05
17 *122:8 *466:A2 2.0489e-05
18 *122:8 *501:B1 0
*RES
1 *465:Z *152:8 14.3214 
2 *152:8 *501:B1 19.2857 
3 *152:8 *466:A2 18.25 
*END

*D_NET *153 0.000234407
*CONN
*I *468:A1 I *D NAND2_X1
*I *466:ZN O *D NAND2_X1
*CAP
1 *468:A1 7.56122e-05
2 *466:ZN 7.56122e-05
3 *468:A1 *468:A2 1.37673e-05
4 *468:A1 *315:169 4.01855e-05
5 *434:A2 *468:A1 2.92302e-05
*RES
1 *466:ZN *468:A1 21.4643 
*END

*D_NET *154 6.19625e-05
*CONN
*I *468:A2 I *D NAND2_X1
*I *467:ZN O *D AOI21_X1
*CAP
1 *468:A2 2.23686e-05
2 *467:ZN 2.23686e-05
3 *468:A2 *467:B1 8.43215e-07
4 *434:A2 *468:A2 2.61469e-06
5 *468:A1 *468:A2 1.37673e-05
*RES
1 *467:ZN *468:A2 12.8571 
*END

*D_NET *155 0.000691427
*CONN
*I *470:B I *D OAI211_X1
*I *468:ZN O *D NAND2_X1
*CAP
1 *470:B 0.000129971
2 *468:ZN 0.000129971
3 *470:B *329:A 2.75346e-06
4 *470:B *413:A1 8.80633e-06
5 *470:B *435:B 6.57148e-07
6 *470:B *467:A 1.10803e-05
7 *470:B *470:C1 4.78054e-06
8 *470:B *228:10 1.14365e-05
9 *470:B *229:21 0
10 *470:B *229:43 0
11 *470:B *230:97 5.46432e-05
12 *470:B *315:169 4.32319e-05
13 *470:B *315:186 9.73131e-06
14 *470:B *316:138 1.15028e-05
15 *404:B2 *470:B 1.41885e-05
16 *411:A *470:B 4.16464e-05
17 *411:B1 *470:B 0
18 *419:B *470:B 0
19 *419:C2 *470:B 3.19164e-07
20 *98:37 *470:B 0.000216707
*RES
1 *468:ZN *470:B 40.5 
*END

*D_NET *156 0.000732983
*CONN
*I *548:A2 I *D AOI22_X1
*I *470:C1 I *D OAI211_X1
*I *469:ZN O *D NOR2_X1
*CAP
1 *548:A2 4.57799e-05
2 *470:C1 0.000143518
3 *469:ZN 0
4 *156:4 0.000189297
5 *470:C1 *412:A1 1.11792e-06
6 *470:C1 *497:A1 8.43215e-07
7 *470:C1 *544:A2 2.28245e-05
8 *470:C1 *549:A1 1.50053e-05
9 *470:C1 *228:12 7.08638e-06
10 *548:A2 *469:A1 1.52083e-06
11 *548:A2 *549:A2 1.0393e-05
12 *548:A2 *549:A3 8.58925e-06
13 *548:A2 *216:16 0
14 *404:C1 *548:A2 2.35379e-05
15 *419:A *470:C1 5.33077e-05
16 *419:C2 *470:C1 4.12459e-06
17 *441:A2 *548:A2 0.000119619
18 *470:B *470:C1 4.78054e-06
19 *544:A1 *470:C1 1.19839e-05
20 *548:A1 *548:A2 1.09597e-05
21 *109:10 *470:C1 4.11048e-05
22 *129:35 *470:C1 1.75902e-05
*RES
1 *469:ZN *156:4 5 
2 *156:4 *470:C1 33.3929 
3 *156:4 *548:A2 23.6071 
*END

*D_NET *157 0.000469965
*CONN
*I *476:A1 I *D NAND3_X1
*I *470:ZN O *D OAI211_X1
*CAP
1 *476:A1 0.000142209
2 *470:ZN 0.000142209
3 *476:A1 *476:A2 2.35353e-05
4 *476:A1 *497:A1 4.5028e-05
5 *476:A1 *519:A 1.98115e-05
6 *476:A1 *182:6 2.03388e-05
7 *476:A1 *203:8 0
8 *476:A1 *316:107 3.19164e-07
9 *85:31 *476:A1 7.65145e-05
*RES
1 *470:ZN *476:A1 30.9286 
*END

*D_NET *158 0.000383478
*CONN
*I *472:A I *D OAI21_X1
*I *471:ZN O *D NAND2_X1
*CAP
1 *472:A 7.66326e-05
2 *471:ZN 7.66326e-05
3 *472:A *471:A1 2.94455e-05
4 *472:A *229:76 0.000181429
5 *472:A *302:71 5.56936e-06
6 *472:A *302:109 2.72417e-06
7 *472:A *314:132 5.94167e-07
8 *410:B1 *472:A 1.045e-05
*RES
1 *471:ZN *472:A 31.1071 
*END

*D_NET *159 0.000913256
*CONN
*I *544:A2 I *D NAND2_X1
*I *473:A2 I *D NAND2_X1
*I *472:ZN O *D OAI21_X1
*CAP
1 *544:A2 0.00018027
2 *473:A2 7.37015e-05
3 *472:ZN 4.56325e-05
4 *159:10 0.000299604
5 *473:A2 *450:A1 1.72501e-06
6 *544:A2 *412:A1 1.2087e-05
7 *159:10 *488:B2 0
8 *159:10 *229:65 1.07633e-05
9 *159:10 *229:76 6.32461e-06
10 *159:10 *302:71 1.11357e-05
11 *159:10 *316:85 7.85075e-05
12 *404:B2 *544:A2 1.33157e-05
13 *470:C1 *544:A2 2.28245e-05
14 *544:A1 *544:A2 1.87369e-06
15 *97:31 *544:A2 5.85162e-05
16 *102:8 *544:A2 3.65974e-06
17 *129:35 *159:10 9.33152e-05
*RES
1 *472:ZN *159:10 22.8929 
2 *159:10 *473:A2 18.06 
3 *159:10 *544:A2 23.96 
*END

*D_NET *160 0.000189497
*CONN
*I *476:A2 I *D NAND3_X1
*I *473:ZN O *D NAND2_X1
*CAP
1 *476:A2 4.52229e-05
2 *473:ZN 4.52229e-05
3 *476:A2 *450:A1 1.90192e-05
4 *476:A2 *519:A 9.6515e-06
5 *476:A2 *174:16 1.52083e-06
6 *476:A2 *316:68 1.8031e-05
7 *476:A1 *476:A2 2.35353e-05
8 *85:31 *476:A2 1.8031e-05
9 *99:39 *476:A2 9.26282e-06
*RES
1 *473:ZN *476:A2 26.9643 
*END

*D_NET *161 0.000102108
*CONN
*I *475:A I *D AOI221_X1
*I *474:ZN O *D NOR3_X1
*CAP
1 *475:A 8.86397e-06
2 *474:ZN 8.86397e-06
3 *475:A *163:12 4.21902e-05
4 *475:A *277:131 4.21902e-05
*RES
1 *474:ZN *475:A 22.2857 
*END

*D_NET *162 0.000729983
*CONN
*I *476:A3 I *D NAND3_X1
*I *475:ZN O *D AOI221_X1
*CAP
1 *476:A3 0.000100994
2 *475:ZN 0.000100994
3 *476:A3 *450:A1 7.63765e-06
4 *476:A3 *163:12 0.000357573
5 *476:A3 *277:131 9.20438e-05
6 *430:A2 *476:A3 1.58752e-05
7 *77:38 *476:A3 2.1905e-07
8 *99:39 *476:A3 5.46453e-05
*RES
1 *475:ZN *476:A3 39.25 
*END

*D_NET *163 0.00133276
*CONN
*I *477:A I *D AOI221_X1
*I *476:ZN O *D NAND3_X1
*CAP
1 *477:A 0
2 *476:ZN 0.000151733
3 *163:12 0.000151733
4 *163:12 *277:10 6.32461e-06
5 *163:12 *277:116 5.74175e-05
6 *163:12 *277:131 1.05877e-05
7 *448:B1 *163:12 1.87637e-06
8 *458:B *163:12 0.000131824
9 *464:B *163:12 3.12145e-06
10 *475:A *163:12 4.21902e-05
11 *476:A3 *163:12 0.000357573
12 *477:B1 *163:12 0.000187193
13 *56:21 *163:12 0
14 *86:42 *163:12 0.000180096
15 *99:39 *163:12 1.53357e-05
16 *118:12 *163:12 3.57546e-05
*RES
1 *476:ZN *163:12 49.6786 
2 *163:12 *477:A 5 
*END

*D_NET *164 0.000715875
*CONN
*I *478:A2 I *D NOR2_X1
*I *553:A2 I *D NAND4_X1
*I *477:ZN O *D AOI221_X1
*CAP
1 *478:A2 4.36036e-05
2 *553:A2 0
3 *477:ZN 0.000147911
4 *164:22 0.000191515
5 *478:A2 *478:A1 2.39679e-06
6 *478:A2 *492:A2 7.72537e-06
7 *478:A2 *554:A4 1.93934e-05
8 *478:A2 *177:22 8.26038e-06
9 *478:A2 *247:20 9.01846e-07
10 *164:22 *367:A1 0
11 *164:22 *177:22 2.32083e-05
12 *164:22 *277:20 6.56341e-05
13 *164:22 *277:116 5.20238e-07
14 *164:22 *318:8 1.51304e-05
15 *448:B1 *164:22 5.24251e-06
16 *449:A3 *164:22 0
17 *459:A1 *164:22 1.90208e-06
18 *459:A2 *164:22 3.22252e-05
19 *460:A2 *478:A2 3.46596e-06
20 *477:C1 *164:22 5.52965e-05
21 *595:D *478:A2 3.88456e-06
22 *46:16 *478:A2 5.58686e-05
23 *68:6 *164:22 0
24 *76:24 *164:22 3.17886e-05
*RES
1 *477:ZN *164:22 45.5714 
2 *164:22 *553:A2 5 
3 *164:22 *478:A2 12.1786 
*END

*D_NET *165 0.000192488
*CONN
*I *480:A I *D AOI21_X1
*I *479:ZN O *D OAI21_X1
*CAP
1 *480:A 7.03897e-05
2 *479:ZN 7.03897e-05
3 *480:A *342:A1 2.39679e-06
4 *342:A2 *480:A 2.75346e-06
5 *479:B2 *480:A 8.43215e-07
6 *480:B2 *480:A 9.02997e-06
7 *515:B2 *480:A 3.66854e-05
8 *46:28 *480:A 0
9 *65:12 *480:A 0
*RES
1 *479:ZN *480:A 28.75 
*END

*D_NET *166 0.000285391
*CONN
*I *490:A I *D AOI21_X1
*I *480:ZN O *D AOI21_X1
*CAP
1 *490:A 7.14415e-05
2 *480:ZN 7.14415e-05
3 *490:A *376:A 2.39679e-06
4 *490:A *376:B 7.72792e-06
5 *490:A *491:A1 2.94435e-05
6 *490:A *491:A3 4.16347e-05
7 *490:A *300:36 5.16272e-06
8 *490:A *316:8 2.3767e-06
9 *479:B1 *490:A 8.56923e-06
10 *480:B1 *490:A 1.36766e-05
11 *480:B2 *490:A 3.15197e-05
12 *65:38 *490:A 0
*RES
1 *480:ZN *490:A 30.6786 
*END

*D_NET *167 0.000249481
*CONN
*I *488:B1 I *D AOI22_X1
*I *481:ZN O *D AOI21_X1
*CAP
1 *488:B1 6.91166e-05
2 *481:ZN 6.91166e-05
3 *488:B1 *316:85 1.88354e-05
4 *488:B1 *316:107 0
5 *409:A2 *488:B1 5.05349e-05
6 *419:C2 *488:B1 1.29329e-05
7 *473:A1 *488:B1 3.09143e-06
8 *481:B1 *488:B1 7.29164e-07
9 *85:31 *488:B1 1.07428e-05
10 *97:31 *488:B1 1.43807e-05
*RES
1 *481:ZN *488:B1 20.1786 
*END

*D_NET *168 0.000563387
*CONN
*I *518:C1 I *D AOI221_X1
*I *484:B1 I *D OAI21_X1
*I *482:ZN O *D AOI21_X1
*CAP
1 *518:C1 8.47608e-05
2 *484:B1 9.15279e-05
3 *482:ZN 0
4 *168:4 0.000176289
5 *484:B1 *406:A 0
6 *484:B1 *456:A1 6.85774e-07
7 *484:B1 *483:B1 8.43215e-07
8 *484:B1 *484:A 6.38328e-07
9 *484:B1 *230:97 5.05725e-05
10 *484:B1 *302:83 1.51004e-05
11 *484:B1 *314:89 3.83453e-06
12 *484:B1 *314:132 1.19928e-05
13 *484:B1 *315:280 1.22742e-05
14 *518:C1 *457:C2 2.26306e-06
15 *518:C1 *482:B1 1.11168e-06
16 *518:C1 *174:16 1.82068e-05
17 *518:C1 *301:54 3.10688e-05
18 *518:C1 *301:67 4.46014e-06
19 *518:C1 *315:126 8.34006e-06
20 *518:C1 *316:53 1.87392e-05
21 *410:B1 *484:B1 0
22 *456:A2 *484:B1 7.72537e-06
23 *457:A *518:C1 1.33944e-05
24 *458:B *518:C1 4.62991e-06
25 *118:12 *518:C1 4.92863e-06
*RES
1 *482:ZN *168:4 5 
2 *168:4 *484:B1 17.8929 
3 *168:4 *518:C1 26.5 
*END

*D_NET *169 0.000111839
*CONN
*I *484:A I *D OAI21_X1
*I *483:ZN O *D AOI21_X1
*CAP
1 *484:A 4.64867e-05
2 *483:ZN 4.64867e-05
3 *484:A *483:B1 2.39679e-06
4 *484:A *301:78 0
5 *484:A *314:132 0
6 *410:B1 *484:A 1.58306e-05
7 *484:B1 *484:A 6.38328e-07
*RES
1 *483:ZN *484:A 15.5357 
*END

*D_NET *170 0.000266264
*CONN
*I *488:B2 I *D AOI22_X1
*I *484:ZN O *D OAI21_X1
*CAP
1 *488:B2 9.03968e-05
2 *484:ZN 9.03968e-05
3 *488:B2 *450:A1 8.57169e-06
4 *488:B2 *483:B1 5.94783e-07
5 *488:B2 *229:65 0
6 *488:B2 *229:76 0
7 *488:B2 *302:83 0
8 *488:B2 *314:132 1.88334e-06
9 *488:B2 *315:280 9.08281e-06
10 *488:B2 *316:68 2.31472e-05
11 *488:B2 *316:85 0
12 *473:A1 *488:B2 4.21902e-05
13 *159:10 *488:B2 0
*RES
1 *484:ZN *488:B2 30.4286 
*END

*D_NET *171 0.000167566
*CONN
*I *487:A1 I *D AND2_X1
*I *485:ZN O *D OAI21_X1
*CAP
1 *487:A1 2.55407e-05
2 *485:ZN 2.55407e-05
3 *487:A1 *485:B2 3.19164e-07
4 *487:A1 *487:A2 2.75346e-06
5 *487:A1 *491:A1 4.32319e-05
6 *486:A1 *487:A1 1.68643e-06
7 *486:A2 *487:A1 1.72811e-05
8 *63:31 *487:A1 8.23035e-06
9 *90:30 *487:A1 4.29819e-05
*RES
1 *485:ZN *487:A1 24.8929 
*END

*D_NET *172 7.2362e-05
*CONN
*I *487:A2 I *D AND2_X1
*I *486:ZN O *D AOI22_X1
*CAP
1 *487:A2 3.0316e-05
2 *486:ZN 3.0316e-05
3 *487:A2 *368:A2 0
4 *487:A2 *485:B1 0
5 *487:A2 *485:B2 7.16188e-07
6 *487:A1 *487:A2 2.75346e-06
7 *63:31 *487:A2 8.26038e-06
*RES
1 *486:ZN *487:A2 13.5357 
*END

*D_NET *173 0.000761164
*CONN
*I *491:A1 I *D AND3_X1
*I *487:ZN O *D AND2_X1
*CAP
1 *491:A1 0.000127841
2 *487:ZN 0.000127841
3 *491:A1 *491:A2 2.75346e-06
4 *491:A1 *491:A3 2.51703e-05
5 *491:A1 *300:60 8.49614e-06
6 *491:A1 *316:8 2.08098e-06
7 *491:A1 *316:19 2.46481e-05
8 *491:A1 *316:30 1.06623e-05
9 *377:A *491:A1 4.16464e-05
10 *479:A *491:A1 1.64388e-05
11 *479:B1 *491:A1 7.01897e-05
12 *486:A1 *491:A1 6.70982e-05
13 *486:A2 *491:A1 2.08098e-06
14 *486:B2 *491:A1 6.28524e-05
15 *487:A1 *491:A1 4.32319e-05
16 *490:A *491:A1 2.94435e-05
17 *63:31 *491:A1 9.55616e-06
18 *66:33 *491:A1 5.1189e-05
19 *66:44 *491:A1 3.79444e-05
*RES
1 *487:ZN *491:A1 43.3929 
*END

*D_NET *174 0.00134301
*CONN
*I *491:A2 I *D AND3_X1
*I *488:ZN O *D AOI22_X1
*CAP
1 *491:A2 0.00032426
2 *488:ZN 0.000103652
3 *174:16 0.000427912
4 *491:A2 *491:A3 2.75346e-06
5 *491:A2 *502:B1 1.70814e-05
6 *491:A2 *503:A2 1.48912e-05
7 *491:A2 *177:22 2.16072e-07
8 *491:A2 *300:36 0
9 *491:A2 *300:47 0
10 *491:A2 *300:60 0
11 *491:A2 *300:75 0
12 *491:A2 *301:36 5.16528e-06
13 *491:A2 *301:54 2.04094e-05
14 *174:16 *450:A1 1.22802e-05
15 *174:16 *457:C2 7.66675e-07
16 *174:16 *518:C2 3.88077e-05
17 *174:16 *316:53 3.5442e-05
18 *174:16 *316:68 9.76549e-06
19 *409:A2 *174:16 1.04301e-05
20 *458:B *174:16 1.61249e-06
21 *464:A *491:A2 1.48912e-05
22 *476:A2 *174:16 1.52083e-06
23 *479:A *491:A2 5.7295e-06
24 *491:A1 *491:A2 2.75346e-06
25 *493:B1 *491:A2 7.52554e-05
26 *494:C2 *491:A2 1.22802e-05
27 *499:B *491:A2 2.2011e-05
28 *518:B1 *174:16 2.33065e-06
29 *518:C1 *174:16 1.82068e-05
30 *85:31 *174:16 4.41414e-05
31 *99:39 *491:A2 2.48234e-05
32 *99:39 *174:16 5.41015e-05
33 *108:6 *174:16 3.95236e-05
*RES
1 *488:ZN *174:16 36.6429 
2 *174:16 *491:A2 49.8214 
*END

*D_NET *175 9.65001e-05
*CONN
*I *490:B1 I *D AOI21_X1
*I *489:Z O *D XOR2_X1
*CAP
1 *490:B1 2.7028e-05
2 *489:Z 2.7028e-05
3 *490:B1 *491:A3 1.77822e-05
4 *490:B1 *300:36 2.90163e-06
5 *490:B1 *316:8 1.43544e-05
6 *479:B2 *490:B1 3.09411e-06
7 *46:26 *490:B1 1.21774e-06
8 *46:28 *490:B1 3.09411e-06
*RES
1 *489:Z *490:B1 23.7143 
*END

*D_NET *176 0.000343605
*CONN
*I *491:A3 I *D AND3_X1
*I *490:ZN O *D AOI21_X1
*CAP
1 *491:A3 6.64693e-05
2 *490:ZN 6.64693e-05
3 *491:A3 *376:A 9.93293e-06
4 *491:A3 *300:36 0
5 *491:A3 *316:8 0.000107955
6 *464:A *491:A3 0
7 *479:A *491:A3 4.9678e-06
8 *479:B1 *491:A3 4.69702e-07
9 *490:A *491:A3 4.16347e-05
10 *490:B1 *491:A3 1.77822e-05
11 *491:A1 *491:A3 2.51703e-05
12 *491:A2 *491:A3 2.75346e-06
*RES
1 *490:ZN *491:A3 31.4286 
*END

*D_NET *177 0.00146126
*CONN
*I *492:A2 I *D NOR2_X1
*I *553:A3 I *D NAND4_X1
*I *491:ZN O *D AND3_X1
*CAP
1 *492:A2 0.00020216
2 *553:A3 0
3 *491:ZN 0.000189624
4 *177:22 0.000391784
5 *492:A2 result[4] 1.21774e-05
6 *492:A2 *348:A1 0
7 *492:A2 *446:A 0
8 *492:A2 *576:CK 0.000133405
9 *492:A2 *247:20 1.87369e-06
10 *492:A2 *279:14 1.36901e-05
11 *492:A2 *293:11 0
12 *492:A2 *302:25 7.47756e-06
13 *492:A2 *318:8 6.84295e-05
14 *492:A2 *322:30 5.51578e-05
15 *492:A2 *326:16 2.96955e-05
16 *492:A2 *326:18 6.70982e-05
17 *492:A2 *326:20 4.24402e-05
18 *177:22 *447:A1 2.1932e-05
19 *177:22 *553:A4 1.92742e-05
20 *177:22 *188:12 5.10087e-06
21 *177:22 *247:20 4.31882e-06
22 *177:22 *318:8 4.03116e-07
23 *447:A3 *492:A2 0
24 *448:B1 *177:22 1.32212e-05
25 *459:A1 *177:22 1.32323e-05
26 *459:A2 *177:22 1.52083e-06
27 *460:A2 *492:A2 0
28 *477:B1 *177:22 4.43086e-06
29 *477:C2 *177:22 6.88381e-07
30 *478:A2 *492:A2 7.72537e-06
31 *478:A2 *177:22 8.26038e-06
32 *479:A *177:22 4.36545e-06
33 *491:A2 *177:22 2.16072e-07
34 *594:D *492:A2 0
35 *596:D *492:A2 4.48522e-05
36 *46:16 *177:22 6.74733e-06
37 *46:20 *177:22 7.84765e-06
38 *46:26 *177:22 0
39 *68:6 *177:22 0
40 *76:24 *177:22 5.89022e-05
41 *164:22 *177:22 2.32083e-05
*RES
1 *491:ZN *177:22 40.8572 
2 *177:22 *553:A3 5 
3 *177:22 *492:A2 44.5714 
*END

*D_NET *178 0.000180399
*CONN
*I *494:A I *D OAI221_X1
*I *493:ZN O *D AOI22_X1
*CAP
1 *494:A 2.66031e-05
2 *493:ZN 2.66031e-05
3 *494:A *503:A2 5.52959e-06
4 *494:A *300:75 6.81795e-05
5 *494:B1 *494:A 5.11191e-06
6 *499:B *494:A 2.3767e-06
7 *513:A2 *494:A 4.47198e-05
8 *86:44 *494:A 4.32144e-07
9 *99:39 *494:A 8.43215e-07
*RES
1 *493:ZN *494:A 24.8929 
*END

*D_NET *179 0.000143319
*CONN
*I *503:A1 I *D NOR4_X1
*I *494:ZN O *D OAI221_X1
*CAP
1 *503:A1 4.54522e-05
2 *494:ZN 4.54522e-05
3 *503:A1 *502:A2 0
4 *503:A1 *502:B1 1.61446e-06
5 *503:A1 *503:A2 4.99565e-05
6 *502:B2 *503:A1 8.43215e-07
7 *106:25 *503:A1 0
*RES
1 *494:ZN *503:A1 15.6786 
*END

*D_NET *180 0.000110947
*CONN
*I *496:A I *D AOI21_X1
*I *495:ZN O *D OAI21_X1
*CAP
1 *496:A 3.70867e-05
2 *495:ZN 3.70867e-05
3 *496:A *495:B1 7.29164e-07
4 *496:A *496:B1 3.4964e-05
5 *514:B *496:A 1.08036e-06
*RES
1 *495:ZN *496:A 14.6786 
*END

*D_NET *181 0.00160799
*CONN
*I *503:A2 I *D NOR4_X1
*I *496:ZN O *D AOI21_X1
*CAP
1 *503:A2 0.000169309
2 *496:ZN 0.000174635
3 *181:10 0.000343943
4 *503:A2 *503:A3 2.39679e-06
5 *503:A2 *512:B2 6.06622e-05
6 *181:10 *314:12 0.000136375
7 *181:10 *314:27 0.000207373
8 *181:10 *315:14 0.000197336
9 *374:A1 *503:A2 0
10 *491:A2 *503:A2 1.48912e-05
11 *494:A *503:A2 5.52959e-06
12 *494:C1 *503:A2 2.9536e-05
13 *495:A *181:10 0
14 *499:A *503:A2 1.68643e-06
15 *499:B *503:A2 4.32298e-05
16 *503:A1 *503:A2 4.99565e-05
17 *511:A1 *503:A2 5.08941e-05
18 *512:B1 *503:A2 2.13666e-05
19 *59:6 *503:A2 3.53331e-06
20 *61:16 *503:A2 5.99488e-05
21 *86:42 *503:A2 6.02287e-06
22 *86:44 *503:A2 0
23 *99:39 *503:A2 2.9366e-05
24 *106:25 *503:A2 0
*RES
1 *496:ZN *181:10 43.75 
2 *181:10 *503:A2 41.1429 
*END

*D_NET *182 0.000226677
*CONN
*I *498:A2 I *D AND2_X1
*I *519:C2 I *D AOI211_X1
*I *497:ZN O *D NOR2_X1
*CAP
1 *498:A2 0
2 *519:C2 2.86427e-05
3 *497:ZN 3.61199e-05
4 *182:6 6.47626e-05
5 *519:C2 *503:A3 1.73458e-05
6 *519:C2 *302:71 5.47625e-06
7 *182:6 *203:8 0
8 *458:C1 *519:C2 3.02351e-05
9 *458:C2 *182:6 2.52965e-06
10 *476:A1 *182:6 2.03388e-05
11 *129:35 *519:C2 5.64879e-06
12 *129:35 *182:6 1.26998e-05
13 *143:12 *182:6 2.87703e-06
*RES
1 *497:ZN *182:6 9.75 
2 *182:6 *519:C2 19.3214 
3 *182:6 *498:A2 5 
*END

*D_NET *183 0.000590633
*CONN
*I *503:A3 I *D NOR4_X1
*I *498:ZN O *D AND2_X1
*CAP
1 *503:A3 0.000175373
2 *498:ZN 0.000175373
3 *503:A3 *188:8 4.5631e-05
4 *450:A2 *503:A3 4.30918e-06
5 *450:A3 *503:A3 8.7486e-05
6 *453:A *503:A3 3.47272e-05
7 *458:A *503:A3 7.2962e-06
8 *458:B *503:A3 0
9 *458:C1 *503:A3 8.1183e-06
10 *502:B2 *503:A3 3.23723e-07
11 *503:A2 *503:A3 2.39679e-06
12 *519:C2 *503:A3 1.73458e-05
13 *86:28 *503:A3 9.77674e-06
14 *86:42 *503:A3 8.99555e-06
15 *103:10 *503:A3 9.65418e-06
16 *129:35 *503:A3 3.82563e-06
*RES
1 *498:ZN *503:A3 44.3572 
*END

*D_NET *184 0.000111933
*CONN
*I *502:A2 I *D OAI22_X1
*I *499:ZN O *D XNOR2_X1
*CAP
1 *502:A2 3.94653e-05
2 *499:ZN 3.94653e-05
3 *502:A2 *502:B1 8.64288e-07
4 *502:A1 *502:A2 2.75346e-06
5 *503:A1 *502:A2 0
6 *99:39 *502:A2 2.28245e-05
7 *106:25 *502:A2 6.56007e-06
*RES
1 *499:ZN *502:A2 14.6786 
*END

*D_NET *185 0.000142791
*CONN
*I *501:A I *D AOI21_X1
*I *500:ZN O *D AOI21_X1
*CAP
1 *501:A 5.52661e-05
2 *500:ZN 5.52661e-05
3 *501:A *433:A 8.61743e-06
4 *501:A *500:A 0
5 *501:A *301:78 3.23723e-07
6 *501:B1 *501:A 1.21774e-06
7 *122:8 *501:A 2.20999e-05
*RES
1 *500:ZN *501:A 17.0357 
*END

*D_NET *186 0.000836617
*CONN
*I *502:B1 I *D OAI22_X1
*I *501:ZN O *D AOI21_X1
*CAP
1 *502:B1 0.000178043
2 *501:ZN 0.000178043
3 *502:B1 *300:79 0
4 *502:B1 *301:54 0.000331834
5 *502:B1 *301:67 0.000101047
6 *502:B1 *315:137 0
7 *502:B1 *315:150 0
8 *415:A *502:B1 0
9 *429:A2 *502:B1 0
10 *472:B1 *502:B1 4.17621e-06
11 *491:A2 *502:B1 1.70814e-05
12 *500:B2 *502:B1 0
13 *502:A1 *502:B1 8.43215e-07
14 *502:A2 *502:B1 8.64288e-07
15 *502:B2 *502:B1 2.39679e-06
16 *503:A1 *502:B1 1.61446e-06
17 *99:39 *502:B1 2.06738e-05
*RES
1 *501:ZN *502:B1 45.9286 
*END

*D_NET *187 0.000222982
*CONN
*I *503:A4 I *D NOR4_X1
*I *502:ZN O *D OAI22_X1
*CAP
1 *503:A4 1.89037e-05
2 *502:ZN 1.89037e-05
3 *503:A4 *301:54 9.33792e-05
4 *502:A1 *503:A4 9.17959e-05
*RES
1 *502:ZN *503:A4 25 
*END

*D_NET *188 0.00219084
*CONN
*I *553:A4 I *D NAND4_X1
*I *504:A2 I *D NOR2_X1
*I *503:ZN O *D NOR4_X1
*CAP
1 *553:A4 1.79415e-05
2 *504:A2 0
3 *503:ZN 7.69383e-05
4 *188:22 0.000240117
5 *188:12 0.000479299
6 *188:8 0.000298179
7 *553:A4 *247:20 2.97556e-05
8 *188:12 *447:A1 3.76506e-05
9 *188:12 *450:A1 0
10 *188:12 *247:20 1.72426e-05
11 *188:12 *318:21 0
12 *188:22 result[6] 0.000400759
13 *188:22 zero 0
14 *188:22 *348:A1 4.32144e-07
15 *188:22 *348:A2 1.68643e-06
16 *188:22 *348:A3 0.000165005
17 *188:22 *523:A2 1.83411e-06
18 *188:22 *591:CK 1.30565e-05
19 *188:22 *277:10 0
20 *188:22 *290:7 5.75004e-07
21 *188:22 *302:12 9.69074e-06
22 *338:B *553:A4 0
23 *442:A *188:12 1.27446e-05
24 *447:A3 *188:12 1.14365e-05
25 *447:A3 *188:22 4.43868e-06
26 *448:B2 *188:12 3.71908e-05
27 *449:A1 *188:12 7.98429e-05
28 *458:B *188:8 1.50098e-05
29 *459:A2 *188:12 1.11218e-05
30 *474:A3 *188:12 1.81716e-05
31 *477:C1 *188:12 0
32 *502:B2 *188:8 3.65322e-06
33 *503:A3 *188:8 4.5631e-05
34 *584:D *188:22 0
35 *46:16 *553:A4 2.55029e-06
36 *46:16 *188:22 1.86809e-06
37 *46:20 *188:22 2.08416e-06
38 *46:26 *188:12 0
39 *46:26 *188:22 9.5257e-06
40 *76:10 *188:12 3.87161e-05
41 *76:24 *188:12 6.54111e-06
42 *77:38 *188:12 0
43 *86:28 *188:12 7.578e-05
44 *92:24 *188:12 0
45 *99:39 *188:8 0
46 *177:22 *553:A4 1.92742e-05
47 *177:22 *188:12 5.10087e-06
*RES
1 *503:ZN *188:8 20.25 
2 *188:8 *188:12 35.1072 
3 *188:12 *188:22 45.6429 
4 *188:22 *504:A2 5 
5 *188:12 *553:A4 8.25 
*END

*D_NET *189 0.00103796
*CONN
*I *558:C2 I *D OAI211_X1
*I *510:C1 I *D OAI211_X1
*I *505:ZN O *D AND2_X1
*CAP
1 *558:C2 0
2 *510:C1 0
3 *505:ZN 4.8899e-05
4 *189:30 0.00028933
5 *189:12 0.000338229
6 *189:12 *543:B2 0
7 *189:12 *564:A 4.32298e-05
8 *189:12 *192:16 1.32323e-05
9 *189:12 *305:19 3.77173e-06
10 *189:12 *328:8 9.22998e-06
11 *189:30 *510:A 2.75346e-06
12 *189:30 *542:A 4.68638e-06
13 *189:30 *554:A4 2.76156e-05
14 *189:30 *604:A 0
15 *189:30 *192:16 2.4904e-05
16 *189:30 *193:22 4.47343e-05
17 *189:30 *275:18 0
18 *189:30 *304:37 2.55787e-06
19 *189:30 *322:104 1.08036e-06
20 *189:30 *324:95 0
21 *352:A *189:30 2.23871e-06
22 *354:B *189:12 0
23 *354:B *189:30 2.08416e-06
24 *357:A2 *189:30 2.55331e-06
25 *357:A3 *189:30 3.58094e-06
26 *422:A2 *189:30 8.00929e-05
27 *505:A2 *189:12 0
28 *542:B1 *189:30 2.47606e-05
29 *41:8 *189:30 4.79202e-06
30 *42:10 *189:30 1.08561e-05
31 *44:8 *189:30 8.74409e-06
32 *45:14 *189:30 9.83877e-06
33 *45:21 *189:30 1.75658e-05
34 *46:93 *189:30 1.51952e-05
35 *110:8 *189:30 1.39839e-06
*RES
1 *505:ZN *189:12 21.9286 
2 *189:12 *189:30 47.8572 
3 *189:30 *510:C1 5 
4 *189:12 *558:C2 5 
*END

*D_NET *190 0.000180476
*CONN
*I *562:B I *D XOR2_X1
*I *558:C1 I *D OAI211_X1
*I *506:ZN O *D NAND2_X1
*CAP
1 *562:B 2.32832e-05
2 *558:C1 4.1105e-05
3 *506:ZN 0
4 *190:4 6.43882e-05
5 *558:C1 *543:B2 0
6 *558:C1 *558:B 8.81096e-06
7 *558:C1 *564:A 9.73131e-06
8 *562:B *558:B 1.87369e-06
9 *562:B *559:B2 3.73261e-06
10 *562:B *564:B2 0
11 *562:B *305:51 7.19036e-06
12 *506:A1 *558:C1 2.39679e-06
13 *506:A2 *558:C1 2.39679e-06
14 *558:A *558:C1 1.55671e-05
15 *563:A1 *558:C1 0
16 *563:A1 *562:B 0
*RES
1 *506:ZN *190:4 5 
2 *190:4 *558:C1 20.2143 
3 *190:4 *562:B 7.75 
*END

*D_NET *191 0.00028071
*CONN
*I *558:B I *D OAI211_X1
*I *507:ZN O *D OR2_X1
*CAP
1 *558:B 6.84848e-05
2 *507:ZN 6.84848e-05
3 *558:B *508:A 1.19839e-05
4 *558:B *559:B2 7.8153e-05
5 *558:B *564:A 1.045e-05
6 *558:B *192:16 7.37795e-06
7 *558:B *305:51 4.92863e-06
8 *506:A2 *558:B 2.39679e-06
9 *507:A2 *558:B 1.53684e-05
10 *558:A *558:B 2.39679e-06
11 *558:C1 *558:B 8.81096e-06
12 *562:B *558:B 1.87369e-06
*RES
1 *507:ZN *558:B 30.6071 
*END

*D_NET *192 0.00041609
*CONN
*I *509:A3 I *D AND3_X1
*I *542:A I *D AOI21_X1
*I *508:Z O *D XOR2_X1
*CAP
1 *509:A3 2.56948e-05
2 *542:A 8.11219e-06
3 *508:Z 9.05964e-05
4 *192:16 0.000124403
5 *509:A3 *559:B2 0
6 *192:16 *507:A1 2.76156e-05
7 *192:16 *508:A 1.68643e-06
8 *192:16 *559:A 4.17885e-06
9 *192:16 *559:B2 3.73244e-06
10 *192:16 *564:A 9.87839e-06
11 *506:A2 *509:A3 1.54082e-05
12 *506:A2 *192:16 5.43035e-06
13 *507:A2 *192:16 1.50966e-05
14 *508:B *192:16 7.19036e-06
15 *509:A2 *509:A3 2.39679e-06
16 *509:A2 *542:A 8.43215e-07
17 *542:B1 *509:A3 4.68749e-06
18 *542:B1 *542:A 2.39679e-06
19 *558:A *192:16 6.0887e-06
20 *558:B *192:16 7.37795e-06
21 *590:D *192:16 1.04526e-05
22 *189:12 *192:16 1.32323e-05
23 *189:30 *542:A 4.68638e-06
24 *189:30 *192:16 2.4904e-05
*RES
1 *508:Z *192:16 28.7143 
2 *192:16 *542:A 6.25 
3 *192:16 *509:A3 8.53572 
*END

*D_NET *193 0.000834492
*CONN
*I *543:B1 I *D OAI21_X1
*I *510:C2 I *D OAI211_X1
*I *509:ZN O *D AND3_X1
*CAP
1 *543:B1 3.72664e-05
2 *510:C2 0
3 *509:ZN 0
4 *193:22 0.000203128
5 *193:4 0.000240395
6 *543:B1 *543:B2 4.23517e-06
7 *543:B1 *320:8 2.16603e-05
8 *193:22 *478:A1 2.75346e-06
9 *193:22 *551:A 7.34533e-06
10 *193:22 *554:A4 6.32461e-06
11 *193:22 *555:B2 3.46187e-05
12 *193:22 *322:104 0.000109515
13 *358:A2 *193:22 2.52965e-06
14 *422:A2 *193:22 4.12796e-06
15 *444:C2 *193:22 4.26902e-05
16 *506:A1 *543:B1 1.72426e-05
17 *506:A2 *543:B1 8.26038e-06
18 *554:A2 *193:22 3.09143e-06
19 *554:A3 *193:22 4.7875e-06
20 *558:A *543:B1 0
21 *45:14 *193:22 3.55053e-06
22 *45:21 *543:B1 9.01846e-07
23 *45:21 *193:22 8.03331e-06
24 *46:119 *543:B1 7.72792e-06
25 *46:119 *193:22 0
26 *48:8 *193:22 1.95724e-05
27 *110:8 *193:22 0
28 *189:30 *193:22 4.47343e-05
*RES
1 *509:ZN *193:4 5 
2 *193:4 *193:22 48.1429 
3 *193:22 *510:C2 5 
4 *193:4 *543:B1 20.4643 
*END

*D_NET *194 9.67009e-05
*CONN
*I *520:B1 I *D AOI21_X1
*I *510:ZN O *D OAI211_X1
*CAP
1 *520:B1 1.95333e-05
2 *510:ZN 1.95333e-05
3 *520:B1 *478:A1 2.75346e-06
4 *520:B1 *520:B2 4.16485e-05
5 *520:B1 *276:12 0
6 *520:B1 *322:104 4.97191e-06
7 *15:10 *520:B1 8.26038e-06
*RES
1 *510:ZN *520:B1 23.0357 
*END

*D_NET *195 0.000210848
*CONN
*I *512:B2 I *D OAI22_X1
*I *511:ZN O *D NOR2_X1
*CAP
1 *512:B2 6.69415e-05
2 *511:ZN 6.69415e-05
3 *512:B2 *512:A1 8.28337e-06
4 *512:B2 *314:27 2.55787e-06
5 *503:A2 *512:B2 6.06622e-05
6 *511:A1 *512:B2 2.70833e-06
7 *512:B1 *512:B2 2.75346e-06
*RES
1 *511:ZN *512:B2 19.0357 
*END

*D_NET *196 0.00011494
*CONN
*I *516:A1 I *D NAND2_X1
*I *512:ZN O *D OAI22_X1
*CAP
1 *516:A1 1.95388e-05
2 *512:ZN 1.95388e-05
3 *516:A1 *516:A2 8.92915e-06
4 *516:A1 *314:31 4.24402e-05
5 *516:A1 *315:61 2.44936e-05
*RES
1 *512:ZN *516:A1 23.6429 
*END

*D_NET *197 6.78021e-05
*CONN
*I *515:A I *D AOI221_X1
*I *513:ZN O *D NOR3_X1
*CAP
1 *515:A 1.50326e-05
2 *513:ZN 1.50326e-05
3 *515:A *515:B1 2.94435e-05
4 *515:A *298:41 0
5 *513:A3 *515:A 8.29353e-06
*RES
1 *513:ZN *515:A 22.2857 
*END

*D_NET *198 0.000716674
*CONN
*I *515:B1 I *D AOI221_X1
*I *514:ZN O *D XNOR2_X1
*CAP
1 *515:B1 0.000160871
2 *514:ZN 0.000160871
3 *515:B1 *342:A1 0
4 *515:B1 *298:41 7.54346e-07
5 *515:B1 *299:40 0
6 *515:B1 *315:25 0
7 *515:B1 *316:30 0
8 *515:B1 *316:53 0
9 *513:A3 *515:B1 6.08869e-06
10 *515:A *515:B1 2.94435e-05
11 *515:B2 *515:B1 0.000357802
12 *515:C2 *515:B1 8.43215e-07
13 *65:10 *515:B1 0
14 *65:12 *515:B1 0
*RES
1 *514:ZN *515:B1 43.25 
*END

*D_NET *199 0.000182967
*CONN
*I *516:A2 I *D NAND2_X1
*I *515:ZN O *D AOI221_X1
*CAP
1 *516:A2 5.73364e-05
2 *515:ZN 5.73364e-05
3 *516:A2 *512:A2 7.19036e-06
4 *516:A2 *298:41 1.18264e-05
5 *516:A2 *298:52 4.17885e-06
6 *516:A2 *314:27 7.19036e-06
7 *516:A2 *314:31 1.66988e-05
8 *516:A2 *315:61 1.22802e-05
9 *516:A1 *516:A2 8.92915e-06
*RES
1 *515:ZN *516:A2 26.9286 
*END

*D_NET *200 0.000776062
*CONN
*I *519:A I *D AOI211_X1
*I *516:ZN O *D NAND2_X1
*CAP
1 *519:A 0.000194714
2 *516:ZN 0.000194714
3 *519:A *517:B2 4.32144e-07
4 *519:A *518:B2 1.46264e-05
5 *519:A *518:C2 0
6 *519:A *519:B 0.00014396
7 *519:A *314:46 0
8 *401:A *519:A 3.71268e-05
9 *476:A1 *519:A 1.98115e-05
10 *476:A2 *519:A 9.6515e-06
11 *512:B1 *519:A 1.74934e-05
12 *518:B1 *519:A 2.97887e-06
13 *85:31 *519:A 0
14 *106:25 *519:A 0.000138157
15 *129:35 *519:A 2.39679e-06
*RES
1 *516:ZN *519:A 39.4286 
*END

*D_NET *201 0.000118594
*CONN
*I *518:B2 I *D AOI221_X1
*I *517:ZN O *D AOI21_X1
*CAP
1 *518:B2 4.56584e-05
2 *517:ZN 4.56584e-05
3 *518:B2 *518:C2 9.89783e-06
4 *518:B1 *518:B2 2.75346e-06
5 *519:A *518:B2 1.46264e-05
*RES
1 *517:ZN *518:B2 15.6786 
*END

*D_NET *202 0.000485762
*CONN
*I *519:B I *D AOI211_X1
*I *518:ZN O *D AOI221_X1
*CAP
1 *519:B 0.000116637
2 *518:ZN 0.000116637
3 *519:B *301:54 1.32192e-05
4 *458:B *519:B 0
5 *502:B2 *519:B 6.76399e-05
6 *518:A *519:B 1.88334e-06
7 *519:A *519:B 0.00014396
8 *519:C1 *519:B 2.39679e-06
9 *99:39 *519:B 1.08703e-05
10 *106:25 *519:B 1.25189e-05
*RES
1 *518:ZN *519:B 37.3929 
*END

*D_NET *203 0.00152486
*CONN
*I *520:B2 I *D AOI21_X1
*I *519:ZN O *D AOI211_X1
*CAP
1 *520:B2 0.000193328
2 *519:ZN 7.62752e-05
3 *203:8 0.000269603
4 *520:B2 *356:A2 5.46432e-05
5 *520:B2 *392:A1 2.3767e-06
6 *520:B2 *392:A2 6.63045e-05
7 *520:B2 *397:A2 1.18496e-05
8 *520:B2 *413:A1 1.66988e-05
9 *520:B2 *554:A4 1.37673e-05
10 *520:B2 *275:18 3.1367e-05
11 *520:B2 *275:33 6.71335e-06
12 *520:B2 *275:53 0.000129696
13 *520:B2 *275:64 5.03745e-05
14 *520:B2 *276:12 0
15 *520:B2 *276:16 2.79509e-05
16 *520:B2 *276:27 5.11191e-06
17 *520:B2 *277:24 6.24292e-06
18 *520:B2 *277:50 6.70962e-05
19 *520:B2 *277:67 8.78271e-05
20 *203:8 *413:A1 7.19036e-06
21 *394:A2 *203:8 8.26038e-06
22 *404:B1 *203:8 3.5628e-06
23 *404:C2 *520:B2 1.53357e-05
24 *458:A *203:8 8.43215e-07
25 *476:A1 *203:8 0
26 *520:B1 *520:B2 4.16485e-05
27 *15:10 *520:B2 1.67207e-05
28 *82:8 *520:B2 1.84849e-05
29 *83:12 *520:B2 1.4293e-06
30 *83:12 *203:8 2.69996e-05
31 *84:14 *203:8 9.18388e-06
32 *86:18 *203:8 1.27711e-05
33 *90:10 *520:B2 1.5025e-05
34 *97:8 *520:B2 0.000201314
35 *143:12 *203:8 2.88665e-05
36 *146:14 *203:8 0
37 *182:6 *203:8 0
*RES
1 *519:ZN *203:8 20.25 
2 *203:8 *520:B2 45.4286 
*END

*D_NET *204 0.000498807
*CONN
*I *557:B I *D OAI211_X1
*I *560:A1 I *D NAND2_X1
*I *550:C2 I *D AOI221_X1
*I *537:ZN O *D OR2_X1
*CAP
1 *557:B 6.65571e-05
2 *560:A1 3.82354e-06
3 *550:C2 6.54823e-05
4 *537:ZN 0
5 *204:21 8.57342e-05
6 *204:4 8.08359e-05
7 *550:C2 *537:A2 1.11331e-05
8 *550:C2 *560:A2 1.09145e-06
9 *550:C2 *205:6 0
10 *550:C2 *206:23 0
11 *550:C2 *207:25 7.16188e-07
12 *550:C2 *216:16 2.75346e-06
13 *557:B *305:81 6.31441e-05
14 *560:A1 *560:A2 2.39679e-06
15 *560:A1 *207:38 7.19036e-06
16 *204:21 *564:B1 0
17 *204:21 *205:10 0
18 *204:21 *305:81 4.24381e-05
19 *384:A3 *550:C2 2.55331e-06
20 *550:B2 *550:C2 3.30047e-06
21 *550:C1 *550:C2 1.21774e-06
22 *557:A *557:B 7.19036e-06
23 *561:A *557:B 0
24 *561:A *204:21 0
25 *76:91 *557:B 5.12483e-05
*RES
1 *537:ZN *204:4 5 
2 *204:4 *550:C2 13.0357 
3 *204:4 *204:21 7.28572 
4 *204:21 *560:A1 10.75 
5 *204:21 *557:B 18.8929 
*END

*D_NET *205 0.000852112
*CONN
*I *561:C2 I *D OAI211_X1
*I *548:B1 I *D AOI22_X1
*I *557:C1 I *D OAI211_X1
*I *538:ZN O *D AND2_X1
*CAP
1 *561:C2 0
2 *548:B1 0.000284261
3 *557:C1 0
4 *538:ZN 8.71307e-06
5 *205:10 0.000324873
6 *205:6 4.93246e-05
7 *548:B1 *359:A2 6.65423e-06
8 *548:B1 *305:81 0
9 *205:6 *537:A2 0
10 *205:10 *559:B1 0
11 *205:10 *564:B1 7.14654e-06
12 *403:A1 *548:B1 1.32348e-05
13 *403:A2 *548:B1 2.11794e-05
14 *403:B1 *548:B1 0
15 *404:A *548:B1 1.91498e-06
16 *404:C1 *548:B1 5.43491e-06
17 *548:A1 *548:B1 8.26038e-06
18 *548:B2 *548:B1 7.72537e-06
19 *550:C2 *205:6 0
20 *561:A *548:B1 1.2453e-05
21 *561:A *205:10 5.46432e-05
22 *49:21 *548:B1 7.66449e-06
23 *50:8 *548:B1 3.86294e-05
24 *204:21 *205:10 0
*RES
1 *538:ZN *205:6 5.92857 
2 *205:6 *205:10 10 
3 *205:10 *557:C1 10 
4 *205:10 *548:B1 42.7143 
5 *205:6 *561:C2 5 
*END

*D_NET *206 0.00049789
*CONN
*I *541:A I *D XNOR2_X1
*I *550:B1 I *D AOI221_X1
*I *563:A2 I *D NAND3_X1
*I *539:Z O *D XOR2_X1
*CAP
1 *541:A 0
2 *550:B1 3.8286e-05
3 *563:A2 3.78292e-05
4 *539:Z 1.66329e-05
5 *206:23 0.000123123
6 *206:8 0.000139299
7 *550:B1 *541:B 2.74429e-05
8 *550:B1 *320:8 3.01743e-06
9 *563:A2 *559:B1 2.74145e-06
10 *563:A2 *305:51 1.06678e-05
11 *206:8 *559:B1 2.38139e-06
12 *206:8 *305:51 8.75903e-06
13 *206:8 *305:62 1.11168e-06
14 *206:23 *538:A1 0
15 *206:23 *305:68 0
16 *550:B2 *550:B1 3.49085e-06
17 *550:B2 *206:23 0
18 *550:C2 *206:23 0
19 *563:A1 *563:A2 1.21774e-06
20 *34:8 *563:A2 0
21 *35:12 *563:A2 2.11458e-06
22 *35:12 *206:23 7.97744e-05
23 *46:119 *550:B1 0
24 *46:126 *550:B1 0
25 *46:126 *206:23 0
*RES
1 *539:Z *206:8 12.2857 
2 *206:8 *563:A2 14.2143 
3 *206:8 *206:23 15.75 
4 *206:23 *550:B1 20.0714 
5 *206:23 *541:A 5 
*END

*D_NET *207 0.000865634
*CONN
*I *561:C1 I *D OAI211_X1
*I *557:C2 I *D OAI211_X1
*I *560:A2 I *D NAND2_X1
*I *541:B I *D XNOR2_X1
*I *540:ZN O *D NAND2_X1
*CAP
1 *561:C1 3.30581e-05
2 *557:C2 0
3 *560:A2 1.28061e-05
4 *541:B 4.25577e-05
5 *540:ZN 5.84697e-05
6 *207:38 8.98244e-05
7 *207:25 0.000111521
8 *207:12 0.000142976
9 *541:B *320:8 0.000157019
10 *560:A2 *561:B 7.29164e-07
11 *561:C1 *538:A2 0
12 *561:C1 *559:B1 8.26038e-06
13 *561:C1 *561:B 0
14 *207:12 *304:37 1.8791e-05
15 *207:38 *537:A2 0
16 *207:38 *561:B 4.17861e-05
17 *383:A *207:25 3.65322e-06
18 *384:A3 *541:B 2.84765e-06
19 *384:A3 *207:25 1.32323e-05
20 *388:A1 *207:25 1.90208e-06
21 *540:A2 *207:12 1.20336e-05
22 *540:A2 *207:25 2.16072e-07
23 *550:B1 *541:B 2.74429e-05
24 *550:B2 *541:B 1.04195e-05
25 *550:C2 *560:A2 1.09145e-06
26 *550:C2 *207:25 7.16188e-07
27 *557:A *561:C1 2.16072e-07
28 *557:A *207:38 4.32144e-07
29 *560:A1 *560:A2 2.39679e-06
30 *560:A1 *207:38 7.19036e-06
31 *561:A *561:C1 2.39679e-06
32 *72:27 *207:12 2.83264e-05
33 *72:27 *207:25 1.08381e-05
34 *73:6 *207:38 0
35 *76:91 *207:25 0
36 *76:91 *207:38 1.41345e-05
37 *77:44 *207:12 8.3499e-06
*RES
1 *540:ZN *207:12 22.75 
2 *207:12 *541:B 23.3929 
3 *207:12 *207:25 5.10714 
4 *207:25 *560:A2 6.82143 
5 *207:25 *207:38 8 
6 *207:38 *557:C2 5 
7 *207:38 *561:C1 9.78572 
*END

*D_NET *208 7.86577e-05
*CONN
*I *551:C2 I *D OAI211_X1
*I *541:ZN O *D XNOR2_X1
*CAP
1 *551:C2 3.56627e-05
2 *541:ZN 3.56627e-05
3 *551:C2 *551:B 9.62051e-07
4 *551:C2 *216:16 0
5 *551:C2 *218:8 5.52692e-06
6 *551:C1 *551:C2 8.43215e-07
7 *46:119 *551:C2 0
*RES
1 *541:ZN *551:C2 13.75 
*END

*D_NET *209 0.000170244
*CONN
*I *543:B2 I *D OAI21_X1
*I *542:ZN O *D AOI21_X1
*CAP
1 *543:B2 5.36792e-05
2 *542:ZN 5.36792e-05
3 *543:B2 *564:A 0
4 *506:A1 *543:B2 3.65202e-05
5 *543:B1 *543:B2 4.23517e-06
6 *558:A *543:B2 9.56336e-06
7 *558:C1 *543:B2 0
8 *43:19 *543:B2 1.04526e-05
9 *46:126 *543:B2 2.11458e-06
10 *189:12 *543:B2 0
*RES
1 *542:ZN *543:B2 26.9286 
*END

*D_NET *210 0.000309175
*CONN
*I *551:A I *D OAI211_X1
*I *543:ZN O *D OAI21_X1
*CAP
1 *551:A 9.38794e-05
2 *543:ZN 9.38794e-05
3 *551:A *218:12 2.33654e-05
4 *551:A *304:37 0
5 *358:A2 *551:A 1.72405e-05
6 *426:A1 *551:A 0
7 *444:B *551:A 0
8 *46:104 *551:A 1.66988e-05
9 *46:119 *551:A 3.95236e-05
10 *77:44 *551:A 1.72426e-05
11 *193:22 *551:A 7.34533e-06
*RES
1 *543:ZN *551:A 32.1429 
*END

*D_NET *211 0.000196305
*CONN
*I *549:A1 I *D NAND3_X1
*I *544:ZN O *D NAND2_X1
*CAP
1 *549:A1 8.13361e-05
2 *544:ZN 8.13361e-05
3 *549:A1 *469:A1 2.55331e-06
4 *549:A1 *549:A2 2.75346e-06
5 *549:A1 *549:A3 1.87637e-06
6 *404:C1 *549:A1 1.02269e-05
7 *469:A2 *549:A1 1.21774e-06
8 *470:C1 *549:A1 1.50053e-05
9 *80:10 *549:A1 0
10 *84:14 *549:A1 0
11 *129:35 *549:A1 0
*RES
1 *544:ZN *549:A1 19.75 
*END

*D_NET *212 8.76798e-05
*CONN
*I *546:A2 I *D NAND2_X1
*I *545:ZN O *D AOI21_X1
*CAP
1 *546:A2 2.95827e-05
2 *545:ZN 2.95827e-05
3 *546:A2 *545:A 6.24431e-06
4 *546:A2 *545:B1 1.91142e-05
5 *546:A1 *546:A2 2.75346e-06
6 *126:14 *546:A2 4.025e-07
*RES
1 *545:ZN *546:A2 23.5357 
*END

*D_NET *213 0.000174908
*CONN
*I *547:B I *D OAI211_X1
*I *546:ZN O *D NAND2_X1
*CAP
1 *547:B 4.42492e-05
2 *546:ZN 4.42492e-05
3 *547:B *545:A 2.60312e-05
4 *547:B *315:232 4.16195e-06
5 *440:A *547:B 1.04526e-05
6 *467:B2 *547:B 2.39679e-06
7 *546:A1 *547:B 2.87993e-05
8 *547:A *547:B 2.39679e-06
9 *126:14 *547:B 1.21711e-05
*RES
1 *546:ZN *547:B 26.4643 
*END

*D_NET *214 0.000374235
*CONN
*I *549:A2 I *D NAND3_X1
*I *547:ZN O *D OAI211_X1
*CAP
1 *549:A2 8.94264e-05
2 *547:ZN 8.94264e-05
3 *549:A2 *469:A1 2.78761e-05
4 *549:A2 *547:C2 6.63045e-05
5 *549:A2 *549:A3 2.75346e-06
6 *549:A2 *216:16 1.14365e-05
7 *549:A2 *303:69 4.025e-07
8 *404:C1 *549:A2 1.43238e-06
9 *440:A *549:A2 4.21902e-05
10 *469:A2 *549:A2 6.82202e-07
11 *546:A1 *549:A2 2.72417e-06
12 *548:A2 *549:A2 1.0393e-05
13 *549:A1 *549:A2 2.75346e-06
14 *128:19 *549:A2 2.64334e-05
*RES
1 *547:ZN *549:A2 33.8929 
*END

*D_NET *215 8.42051e-05
*CONN
*I *549:A3 I *D NAND3_X1
*I *548:ZN O *D AOI22_X1
*CAP
1 *549:A3 2.71021e-05
2 *548:ZN 2.71021e-05
3 *549:A3 *216:16 1.06702e-05
4 *404:C1 *549:A3 3.09411e-06
5 *441:A2 *549:A3 3.01743e-06
6 *548:A2 *549:A3 8.58925e-06
7 *549:A1 *549:A3 1.87637e-06
8 *549:A2 *549:A3 2.75346e-06
*RES
1 *548:ZN *549:A3 23.7143 
*END

*D_NET *216 0.000923969
*CONN
*I *550:A I *D AOI221_X1
*I *549:ZN O *D NAND3_X1
*CAP
1 *550:A 0
2 *549:ZN 0.000228615
3 *216:16 0.000228615
4 *216:16 *551:B 2.5808e-05
5 *216:16 *218:8 2.83077e-06
6 *216:16 *303:56 3.48474e-05
7 *216:16 *303:69 3.82123e-05
8 *404:A *216:16 5.48953e-05
9 *426:A1 *216:16 0
10 *441:A2 *216:16 0
11 *443:A4 *216:16 2.94435e-05
12 *548:A2 *216:16 0
13 *548:B2 *216:16 3.41026e-05
14 *549:A2 *216:16 1.14365e-05
15 *549:A3 *216:16 1.06702e-05
16 *550:B2 *216:16 8.43215e-07
17 *550:C1 *216:16 6.07041e-06
18 *550:C2 *216:16 2.75346e-06
19 *551:C1 *216:16 4.32144e-07
20 *551:C2 *216:16 0
21 *72:27 *216:16 2.57883e-05
22 *76:84 *216:16 9.32677e-05
23 *78:24 *216:16 9.40239e-05
24 *90:84 *216:16 1.3143e-06
*RES
1 *549:ZN *216:16 49.6072 
2 *216:16 *550:A 5 
*END

*D_NET *217 0.000189437
*CONN
*I *551:B I *D OAI211_X1
*I *550:ZN O *D AOI221_X1
*CAP
1 *551:B 4.96419e-05
2 *550:ZN 4.96419e-05
3 *551:B *304:37 1.9871e-06
4 *550:C1 *551:B 4.43147e-05
5 *551:C1 *551:B 8.43215e-07
6 *551:C2 *551:B 9.62051e-07
7 *77:44 *551:B 1.62377e-05
8 *216:16 *551:B 2.5808e-05
*RES
1 *550:ZN *551:B 27.2857 
*END

*D_NET *218 0.00211394
*CONN
*I *568:A2 I *D AND2_X1
*I *556:C1 I *D AOI211_X1
*I *552:A2 I *D AND2_X1
*I *551:ZN O *D OAI211_X1
*CAP
1 *568:A2 0
2 *556:C1 0.000108175
3 *552:A2 2.90298e-05
4 *551:ZN 9.21422e-06
5 *218:43 0.000192887
6 *218:18 0.00016973
7 *218:12 0.000377502
8 *218:8 0.000330729
9 *552:A2 *566:A2 7.19036e-06
10 *552:A2 *234:35 5.46453e-05
11 *552:A2 *234:37 7.72537e-06
12 *556:C1 *556:B 3.84562e-05
13 *556:C1 *566:A2 2.35379e-05
14 *556:C1 *221:18 4.7087e-06
15 *556:C1 *234:41 0
16 *556:C1 *234:43 2.39679e-06
17 *556:C1 *234:45 4.79279e-05
18 *218:12 *357:A1 5.74801e-05
19 *218:12 *304:37 0.000127248
20 *218:12 *320:8 1.11357e-05
21 *218:12 *324:93 0
22 *218:12 *328:55 2.8372e-05
23 *218:18 result[7] 3.40142e-05
24 *218:18 *234:35 4.7875e-06
25 *218:18 *278:14 3.82456e-05
26 *218:18 *327:10 0
27 *218:43 *522:A2 7.16735e-05
28 *218:43 *536:A2 3.22252e-05
29 *218:43 *566:A2 1.48843e-05
30 *218:43 *234:43 2.59372e-05
31 *218:43 *309:15 3.71271e-05
32 *218:43 *327:6 3.40142e-05
33 *218:43 *327:45 4.00561e-05
34 *353:A2 *218:12 0
35 *358:A2 *218:12 3.02683e-06
36 *358:A3 *218:12 1.00458e-05
37 *551:A *218:12 2.33654e-05
38 *551:C2 *218:8 5.52692e-06
39 *569:D *552:A2 0
40 *577:D *552:A2 0
41 *577:D *218:43 1.13477e-05
42 *578:D *218:12 1.08926e-05
43 *585:D *218:12 1.47937e-05
44 *585:D *218:18 4.16464e-05
45 *588:D *556:C1 2.13098e-05
46 *591:D *556:C1 5.83614e-06
47 *43:10 *218:12 2.26304e-06
48 *45:14 *218:12 0
49 *216:16 *218:8 2.83077e-06
*RES
1 *551:ZN *218:8 11.25 
2 *218:8 *218:12 47.3214 
3 *218:12 *218:18 12.5714 
4 *218:18 *552:A2 13.7143 
5 *218:18 *218:43 29.5714 
6 *218:43 *556:C1 19.6429 
7 *218:43 *568:A2 5 
*END

*D_NET *219 0.000615179
*CONN
*I *554:A4 I *D NOR4_X1
*I *553:ZN O *D NAND4_X1
*CAP
1 *554:A4 0.000147541
2 *553:ZN 0.000147541
3 *554:A4 *423:A 7.19036e-06
4 *554:A4 *478:A1 2.33779e-06
5 *554:A4 *555:B2 5.46453e-05
6 *554:A4 *247:20 0.000140833
7 *554:A4 *322:104 1.46861e-05
8 *444:C2 *554:A4 2.72171e-06
9 *478:A2 *554:A4 1.93934e-05
10 *520:B2 *554:A4 1.37673e-05
11 *595:D *554:A4 2.42461e-05
12 *15:10 *554:A4 1.87637e-06
13 *133:14 *554:A4 4.46014e-06
14 *189:30 *554:A4 2.76156e-05
15 *193:22 *554:A4 6.32461e-06
*RES
1 *553:ZN *554:A4 43.5714 
*END

*D_NET *220 0.000568393
*CONN
*I *555:B2 I *D AOI21_X1
*I *554:ZN O *D NOR4_X1
*CAP
1 *555:B2 9.52598e-05
2 *554:ZN 9.52598e-05
3 *555:B2 *349:A2 6.89712e-05
4 *555:B2 *423:A 8.06325e-05
5 *555:B2 *221:18 3.49085e-06
6 *555:B2 *247:20 2.54476e-05
7 *555:B2 *322:89 4.43868e-06
8 *555:B2 *322:104 4.0504e-05
9 *555:B2 *322:128 0
10 *422:A2 *555:B2 4.62991e-06
11 *445:A2 *555:B2 3.33292e-05
12 *554:A2 *555:B2 6.32461e-06
13 *554:A3 *555:B2 1.11258e-05
14 *554:A4 *555:B2 5.46453e-05
15 *7:10 *555:B2 0
16 *133:14 *555:B2 9.71532e-06
17 *193:22 *555:B2 3.46187e-05
*RES
1 *554:ZN *555:B2 37.3572 
*END

*D_NET *221 0.000871011
*CONN
*I *556:B I *D AOI211_X1
*I *555:ZN O *D AOI21_X1
*CAP
1 *556:B 2.49458e-05
2 *555:ZN 0.000245038
3 *221:18 0.000269984
4 *556:B *522:A2 3.33059e-05
5 *556:B *592:CK 2.71691e-06
6 *221:18 *522:A2 1.579e-05
7 *221:18 *566:A2 4.0506e-06
8 *221:18 *577:CK 0
9 *221:18 *588:CK 3.43734e-05
10 *221:18 *594:CK 5.10087e-06
11 *221:18 *275:16 0
12 *221:18 *297:15 4.16464e-05
13 *221:18 *309:15 1.26972e-05
14 *221:18 *324:69 3.02296e-05
15 *221:18 *324:71 5.4684e-05
16 *221:18 *327:72 1.0303e-05
17 *221:18 *328:35 0
18 *445:A2 *221:18 2.94182e-05
19 *555:B2 *221:18 3.49085e-06
20 *556:A *556:B 2.75346e-06
21 *556:C1 *556:B 3.84562e-05
22 *556:C1 *221:18 4.7087e-06
23 *577:D *221:18 0
24 *588:D *221:18 7.31712e-06
25 *7:10 *221:18 0
*RES
1 *555:ZN *221:18 47 
2 *221:18 *556:B 9.25 
*END

*D_NET *222 0.000563362
*CONN
*I *559:B1 I *D AOI21_X1
*I *557:ZN O *D OAI211_X1
*CAP
1 *559:B1 0.000194798
2 *557:ZN 0.000194798
3 *559:B1 *559:A 2.44308e-05
4 *559:B1 *559:B2 3.09143e-06
5 *559:B1 *305:51 0
6 *559:B1 *305:62 0
7 *561:C1 *559:B1 8.26038e-06
8 *563:A2 *559:B1 2.74145e-06
9 *589:D *559:B1 0.000132861
10 *205:10 *559:B1 0
11 *206:8 *559:B1 2.38139e-06
*RES
1 *557:ZN *559:B1 43.0714 
*END

*D_NET *223 0.000261421
*CONN
*I *559:B2 I *D AOI21_X1
*I *558:ZN O *D OAI211_X1
*CAP
1 *559:B2 8.0749e-05
2 *558:ZN 8.0749e-05
3 *559:B2 *559:A 6.85774e-07
4 *507:A2 *559:B2 1.96342e-06
5 *509:A3 *559:B2 0
6 *558:B *559:B2 7.8153e-05
7 *559:B1 *559:B2 3.09143e-06
8 *562:B *559:B2 3.73261e-06
9 *34:8 *559:B2 8.56384e-06
10 *192:16 *559:B2 3.73244e-06
*RES
1 *558:ZN *559:B2 20.8571 
*END

*D_NET *224 0.000121431
*CONN
*I *561:B I *D OAI211_X1
*I *560:ZN O *D NAND2_X1
*CAP
1 *561:B 3.58627e-05
2 *560:ZN 3.58627e-05
3 *561:B *537:A2 0
4 *561:B *538:A2 0
5 *560:A2 *561:B 7.29164e-07
6 *561:A *561:B 7.19036e-06
7 *561:C1 *561:B 0
8 *207:38 *561:B 4.17861e-05
*RES
1 *560:ZN *561:B 14.6786 
*END

*D_NET *225 0.000436434
*CONN
*I *564:B1 I *D AOI21_X1
*I *561:ZN O *D OAI211_X1
*CAP
1 *564:B1 0.000101317
2 *561:ZN 0.000101317
3 *564:B1 *564:A 1.87392e-05
4 *564:B1 *564:B2 4.53872e-05
5 *564:B1 *305:68 0
6 *564:B1 *305:81 0
7 *564:B1 *321:8 6.68461e-05
8 *564:B1 *321:19 6.36399e-05
9 *563:A1 *564:B1 2.38892e-05
10 *35:12 *564:B1 8.15234e-06
11 *204:21 *564:B1 0
12 *205:10 *564:B1 7.14654e-06
*RES
1 *561:ZN *564:B1 34.6786 
*END

*D_NET *226 4.28951e-05
*CONN
*I *563:A3 I *D NAND3_X1
*I *562:Z O *D XOR2_X1
*CAP
1 *563:A3 2.14476e-05
2 *562:Z 2.14476e-05
3 *563:A3 *564:B2 0
*RES
1 *562:Z *563:A3 12.2857 
*END

*D_NET *227 0.000129376
*CONN
*I *564:B2 I *D AOI21_X1
*I *563:ZN O *D NAND3_X1
*CAP
1 *564:B2 3.35155e-05
2 *563:ZN 3.35155e-05
3 *562:B *564:B2 0
4 *563:A1 *564:B2 1.69579e-05
5 *563:A3 *564:B2 0
6 *564:B1 *564:B2 4.53872e-05
*RES
1 *563:ZN *564:B2 15.1786 
*END

*D_NET *228 0.000456552
*CONN
*I *412:A1 I *D NOR2_X1
*I *470:C2 I *D OAI211_X1
*I *497:A1 I *D NOR2_X1
*I *395:A1 I *D NAND2_X1
*I *329:ZN O *D INV_X1
*CAP
1 *412:A1 3.17621e-05
2 *470:C2 0
3 *497:A1 3.28617e-05
4 *395:A1 8.12661e-06
5 *329:ZN 2.70024e-05
6 *228:12 5.94024e-05
7 *228:10 7.71787e-05
8 *228:10 *413:A1 6.13094e-06
9 *404:B2 *228:10 7.89234e-05
10 *412:A2 *412:A1 3.65918e-05
11 *412:A2 *228:12 7.72792e-06
12 *470:B *228:10 1.14365e-05
13 *470:C1 *412:A1 1.11792e-06
14 *470:C1 *497:A1 8.43215e-07
15 *470:C1 *228:12 7.08638e-06
16 *476:A1 *497:A1 4.5028e-05
17 *497:A2 *497:A1 2.52965e-06
18 *544:A2 *412:A1 1.2087e-05
19 *84:14 *497:A1 7.66449e-06
20 *84:14 *228:12 1.28122e-06
21 *97:31 *228:10 1.76929e-06
*RES
1 *329:ZN *228:10 19.3214 
2 *228:10 *228:12 2.25 
3 *228:12 *395:A1 5.92857 
4 *228:12 *497:A1 9.75 
5 *228:12 *470:C2 5 
6 *228:10 *412:A1 9.67857 
*END

*D_NET *229 0.00226813
*CONN
*I *434:A1 I *D OR2_X1
*I *410:B2 I *D OAI21_X1
*I *547:C2 I *D OAI211_X1
*I *440:B2 I *D OAI21_X1
*I *391:A1 I *D NAND2_X1
*I *455:S I *D MUX2_X1
*I *471:A1 I *D NAND2_X1
*I *466:A1 I *D NAND2_X1
*I *472:B2 I *D OAI21_X1
*I *438:A1 I *D NAND2_X1
*I *330:ZN O *D INV_X1
*CAP
1 *434:A1 0
2 *410:B2 0
3 *547:C2 3.9364e-05
4 *440:B2 0
5 *391:A1 0
6 *455:S 0
7 *471:A1 2.80881e-05
8 *466:A1 6.09993e-06
9 *472:B2 3.65903e-06
10 *438:A1 2.89579e-05
11 *330:ZN 0
12 *229:112 0.00014865
13 *229:103 0.000121337
14 *229:76 0.000114656
15 *229:65 0.000139792
16 *229:59 9.64442e-05
17 *229:51 0.000119014
18 *229:43 0.000138243
19 *229:21 0.000194657
20 *229:4 0.000151556
21 *438:A1 *545:A 2.70833e-06
22 *438:A1 *315:215 1.63361e-05
23 *438:A1 *315:232 1.32348e-05
24 *471:A1 *315:169 7.72792e-06
25 *547:C2 *303:79 1.19839e-05
26 *547:C2 *314:146 4.12459e-06
27 *229:21 *545:A 7.29164e-07
28 *229:21 *315:202 1.88334e-06
29 *229:21 *315:215 0
30 *229:43 *405:B1 3.19164e-07
31 *229:43 *435:B 0
32 *229:43 *454:B 4.0876e-05
33 *229:43 *315:186 2.01842e-05
34 *229:43 *315:202 1.40229e-05
35 *229:51 *454:B 1.74934e-05
36 *229:51 *316:138 4.03536e-05
37 *229:59 *230:97 1.71452e-05
38 *229:59 *316:138 0
39 *229:65 *408:A1 8.43215e-07
40 *229:65 *230:97 0
41 *229:65 *316:68 7.72537e-06
42 *229:76 *483:B1 2.51151e-05
43 *229:76 *302:71 2.99187e-06
44 *229:103 *230:97 7.2187e-06
45 *229:112 *230:97 6.46429e-06
46 *229:112 *230:99 3.6819e-05
47 *229:112 *314:138 2.37894e-05
48 *229:112 *314:146 5.51578e-05
49 *404:B2 *229:103 7.72792e-06
50 *404:B2 *229:112 2.48621e-05
51 *410:A *229:43 2.16072e-07
52 *410:B1 *229:43 8.43215e-07
53 *410:B1 *229:51 7.40328e-06
54 *411:A *229:43 1.21756e-05
55 *411:B1 *229:43 2.04022e-06
56 *411:B2 *547:C2 1.25189e-05
57 *411:B2 *229:112 1.8346e-05
58 *419:C2 *229:65 4.32144e-07
59 *434:A2 *471:A1 8.43215e-07
60 *436:B *229:21 3.5795e-05
61 *436:C1 *438:A1 0
62 *436:C1 *229:21 2.55787e-06
63 *455:A *229:59 1.58306e-05
64 *455:A *229:103 1.03048e-06
65 *455:B *229:51 4.98258e-06
66 *466:A2 *466:A1 2.52965e-06
67 *467:B2 *438:A1 4.12459e-06
68 *470:B *229:21 0
69 *470:B *229:43 0
70 *472:A *471:A1 2.94455e-05
71 *472:A *229:76 0.000181429
72 *472:B1 *472:B2 3.09411e-06
73 *481:B1 *229:59 0
74 *481:B1 *229:103 7.19036e-06
75 *488:B2 *229:65 0
76 *488:B2 *229:76 0
77 *546:A1 *438:A1 0
78 *546:A1 *547:C2 1.33704e-05
79 *547:A *229:21 0
80 *547:C1 *547:C2 8.43215e-07
81 *549:A2 *547:C2 6.63045e-05
82 *98:58 *229:21 7.71248e-06
83 *98:58 *229:43 6.07731e-06
84 *122:8 *466:A1 7.19036e-06
85 *122:8 *471:A1 2.52965e-06
86 *126:14 *438:A1 8.43215e-07
87 *128:19 *547:C2 9.77674e-06
88 *129:35 *229:59 6.38328e-07
89 *129:35 *229:65 4.48548e-05
90 *142:8 *229:51 1.91667e-07
91 *143:12 *229:51 0
92 *143:12 *229:59 9.5257e-06
93 *159:10 *229:65 1.07633e-05
94 *159:10 *229:76 6.32461e-06
*RES
1 *330:ZN *229:4 5 
2 *229:4 *438:A1 8.85714 
3 *229:4 *229:21 19.1786 
4 *229:21 *229:43 15.9286 
5 *229:43 *229:51 18.1071 
6 *229:51 *229:59 16.0357 
7 *229:59 *229:65 12.3571 
8 *229:65 *472:B2 10.75 
9 *229:65 *229:76 11.7857 
10 *229:76 *466:A1 10.75 
11 *229:76 *471:A1 13.0357 
12 *229:59 *455:S 5 
13 *229:51 *229:103 1.75 
14 *229:103 *391:A1 5 
15 *229:103 *229:112 16.6786 
16 *229:112 *440:B2 5 
17 *229:112 *547:C2 21.1429 
18 *229:43 *410:B2 5 
19 *229:21 *434:A1 10 
*END

*D_NET *230 0.00277279
*CONN
*I *389:A2 I *D NAND2_X1
*I *439:A2 I *D NAND2_X1
*I *414:A2 I *D AND2_X1
*I *427:A2 I *D NAND2_X1
*I *428:B1 I *D AOI21_X1
*I *417:A3 I *D NAND3_X1
*I *416:A2 I *D NAND2_X1
*I *331:ZN O *D INV_X1
*CAP
1 *389:A2 5.643e-06
2 *439:A2 3.75274e-05
3 *414:A2 0
4 *427:A2 8.07567e-06
5 *428:B1 0
6 *417:A3 1.19536e-05
7 *416:A2 4.4958e-05
8 *331:ZN 3.808e-05
9 *230:99 0.000135331
10 *230:97 0.0003451
11 *230:64 0.000294549
12 *230:49 7.14076e-05
13 *230:22 9.34049e-05
14 *230:16 5.90764e-05
15 *230:10 8.23857e-05
16 *389:A2 *314:146 7.19036e-06
17 *416:A2 *298:58 2.75346e-06
18 *416:A2 *299:96 1.86937e-06
19 *416:A2 *314:46 0
20 *416:A2 *315:61 9.38792e-05
21 *416:A2 *316:53 6.78918e-06
22 *417:A3 *417:A2 1.32323e-05
23 *417:A3 *314:35 1.21774e-06
24 *417:A3 *314:46 7.21335e-06
25 *417:A3 *315:70 4.79358e-06
26 *439:A2 *390:B 3.01743e-06
27 *439:A2 *390:S 5.11191e-06
28 *439:A2 *439:A1 1.21774e-06
29 *439:A2 *303:69 0.000146395
30 *439:A2 *304:65 0
31 *439:A2 *304:69 9.44167e-05
32 *230:10 *427:A1 7.72537e-06
33 *230:16 *299:109 1.48912e-05
34 *230:16 *315:70 5.33113e-06
35 *230:22 *331:A 2.3767e-06
36 *230:22 *299:96 1.91667e-07
37 *230:22 *315:61 1.2203e-05
38 *230:22 *315:70 4.57414e-05
39 *230:49 *427:A1 5.56848e-05
40 *230:49 *299:109 5.64879e-06
41 *230:49 *314:59 5.7416e-06
42 *230:49 *314:70 5.39412e-06
43 *230:64 *414:A1 7.19036e-06
44 *230:64 *415:B1 4.32144e-07
45 *230:64 *415:B2 0
46 *230:64 *427:A1 1.27467e-05
47 *230:64 *432:A2 0
48 *230:64 *300:75 1.26998e-05
49 *230:64 *314:70 2.84765e-06
50 *230:64 *314:74 2.33065e-06
51 *230:97 *482:B2 7.72792e-06
52 *230:97 *302:83 0.000103341
53 *230:97 *302:109 1.90208e-06
54 *230:97 *314:89 2.15208e-06
55 *230:97 *314:132 1.12438e-05
56 *230:97 *314:138 6.49208e-05
57 *230:97 *315:107 0
58 *230:99 *314:146 9.70757e-05
59 *404:B2 *230:97 5.64879e-06
60 *404:B2 *230:99 1.26998e-05
61 *404:C1 *439:A2 3.09143e-06
62 *415:A *230:64 2.39679e-06
63 *415:A *230:97 2.42487e-05
64 *418:A *230:10 3.09166e-05
65 *418:A *230:16 2.52965e-06
66 *418:A *230:22 3.45972e-05
67 *419:B *230:97 0
68 *428:A *230:16 1.72426e-05
69 *470:B *230:97 5.46432e-05
70 *472:B1 *230:97 0.000112375
71 *482:A *230:97 1.86244e-05
72 *484:B1 *230:97 5.05725e-05
73 *500:B1 *230:64 1.85634e-05
74 *512:B1 *416:A2 0
75 *49:21 *439:A2 8.43215e-07
76 *80:10 *230:99 0.000194779
77 *106:8 *416:A2 1.72426e-05
78 *229:59 *230:97 1.71452e-05
79 *229:65 *230:97 0
80 *229:103 *230:97 7.2187e-06
81 *229:112 *230:97 6.46429e-06
82 *229:112 *230:99 3.6819e-05
*RES
1 *331:ZN *230:10 15.1786 
2 *230:10 *230:16 8.03572 
3 *230:16 *230:22 10.8571 
4 *230:22 *416:A2 16.75 
5 *230:22 *417:A3 11.75 
6 *230:16 *428:B1 5 
7 *230:10 *230:49 3.64286 
8 *230:49 *427:A2 10.75 
9 *230:49 *230:64 10.1786 
10 *230:64 *414:A2 5 
11 *230:64 *230:97 49.9286 
12 *230:97 *230:99 18.25 
13 *230:99 *439:A2 23.4643 
14 *230:99 *389:A2 5.75 
*END

*D_NET *231 0.000620434
*CONN
*I *392:A1 I *D NOR3_X1
*I *402:A1 I *D NOR2_X1
*I *397:A1 I *D NAND3_X1
*I *332:ZN O *D INV_X1
*CAP
1 *392:A1 3.64036e-05
2 *402:A1 3.23203e-05
3 *397:A1 6.14425e-05
4 *332:ZN 0
5 *231:21 0.000105655
6 *231:4 9.83732e-05
7 *392:A1 *392:A2 7.86537e-06
8 *392:A1 *392:A3 6.37672e-05
9 *392:A1 *233:12 1.58475e-05
10 *397:A1 *332:A 1.28122e-06
11 *397:A1 *397:A3 1.24626e-05
12 *397:A1 *407:A1 0
13 *397:A1 *407:A2 3.19164e-07
14 *397:A1 *233:8 7.16188e-07
15 *397:A1 *277:67 2.09871e-05
16 *397:A1 *277:78 4.95497e-06
17 *397:A1 *277:91 1.03334e-06
18 *402:A1 *233:8 3.05041e-06
19 *231:21 *332:A 4.12459e-06
20 *231:21 *396:A3 4.19686e-05
21 *231:21 *407:A1 2.63647e-05
22 *231:21 *233:8 4.6613e-07
23 *520:B2 *392:A1 2.3767e-06
24 *75:14 *402:A1 1.28334e-05
25 *75:20 *402:A1 1.21774e-06
26 *77:44 *402:A1 8.62199e-06
27 *83:12 *392:A1 3.77683e-05
28 *86:18 *392:A1 3.09411e-06
29 *90:76 *397:A1 1.18589e-06
30 *109:10 *397:A1 1.39325e-05
*RES
1 *332:ZN *231:4 5 
2 *231:4 *397:A1 22.3929 
3 *231:4 *231:21 5.17857 
4 *231:21 *402:A1 9.25 
5 *231:21 *392:A1 21.4286 
*END

*D_NET *232 0.000483181
*CONN
*I *393:A2 I *D NAND3_X1
*I *397:A2 I *D NAND3_X1
*I *356:A2 I *D NOR3_X1
*I *333:ZN O *D INV_X1
*CAP
1 *393:A2 0
2 *397:A2 2.85494e-05
3 *356:A2 2.21479e-05
4 *333:ZN 3.18008e-05
5 *232:14 5.06973e-05
6 *232:12 3.18008e-05
7 *356:A2 *276:27 4.4878e-05
8 *356:A2 *276:40 2.60713e-06
9 *356:A2 *277:50 4.79358e-06
10 *397:A2 *275:53 6.60545e-05
11 *397:A2 *276:40 5.48932e-05
12 *232:12 *333:A 1.57425e-05
13 *232:12 *393:A1 3.47617e-06
14 *232:12 *393:A3 7.19036e-06
15 *520:B2 *356:A2 5.46432e-05
16 *520:B2 *397:A2 1.18496e-05
17 *69:34 *232:12 2.75088e-05
18 *76:65 *356:A2 1.18589e-06
19 *83:12 *397:A2 6.11944e-06
20 *90:22 *397:A2 1.72426e-05
*RES
1 *333:ZN *232:12 10.3571 
2 *232:12 *232:14 5 
3 *232:14 *356:A2 14.2143 
4 *232:14 *397:A2 15.6786 
5 *232:12 *393:A2 5 
*END

*D_NET *233 0.000560127
*CONN
*I *407:A3 I *D NAND3_X1
*I *392:A3 I *D NOR3_X1
*I *396:A3 I *D NOR3_X1
*I *413:A4 I *D NAND4_X1
*I *334:ZN O *D INV_X1
*CAP
1 *407:A3 0
2 *392:A3 1.42979e-05
3 *396:A3 4.28992e-05
4 *413:A4 0
5 *334:ZN 3.37452e-05
6 *233:14 4.28992e-05
7 *233:12 3.4859e-05
8 *233:8 5.43063e-05
9 *392:A3 *392:A2 4.93557e-05
10 *392:A3 *275:64 1.5916e-05
11 *396:A3 *332:A 8.4321e-06
12 *396:A3 *396:A2 4.86645e-05
13 *396:A3 *413:A3 7.19036e-06
14 *233:8 *407:A2 2.39679e-06
15 *233:12 *275:53 1.66988e-05
16 *233:12 *275:64 3.4091e-05
17 *392:A1 *392:A3 6.37672e-05
18 *392:A1 *233:12 1.58475e-05
19 *397:A1 *233:8 7.16188e-07
20 *402:A1 *233:8 3.05041e-06
21 *451:A2 *233:8 8.98e-06
22 *53:32 *233:8 0
23 *75:14 *233:8 1.32323e-05
24 *75:20 *233:8 0
25 *83:12 *233:12 6.34619e-06
26 *90:22 *233:8 0
27 *231:21 *396:A3 4.19686e-05
28 *231:21 *233:8 4.6613e-07
*RES
1 *334:ZN *233:8 9.17857 
2 *233:8 *233:12 7.96429 
3 *233:12 *233:14 5 
4 *233:14 *413:A4 5 
5 *233:14 *396:A3 11.9286 
6 *233:12 *392:A3 13.6429 
7 *233:8 *407:A3 5 
*END

*D_NET *234 0.00334324
*CONN
*I *528:A1 I *D AND2_X1
*I *521:A1 I *D AND2_X1
*I *565:A1 I *D AND2_X1
*I *522:A1 I *D AND2_X1
*I *552:A1 I *D AND2_X1
*I *536:A1 I *D AND2_X1
*I *529:A1 I *D AND2_X1
*I *568:A1 I *D AND2_X1
*I *535:A1 I *D AND2_X1
*I *530:A1 I *D AND2_X1
*I *531:A1 I *D AND2_X1
*I *524:A1 I *D AND2_X1
*I *532:A1 I *D AND2_X1
*I *525:A1 I *D AND2_X1
*I *526:A1 I *D AND2_X1
*I *534:A1 I *D AND2_X1
*I *527:A1 I *D AND2_X1
*I *533:A1 I *D AND2_X1
*I *567:A1 I *D AND2_X1
*I *523:A1 I *D AND2_X1
*I *556:C2 I *D AOI211_X1
*I *566:A1 I *D AND2_X1
*I *335:ZN O *D INV_X1
*CAP
1 *528:A1 7.34475e-05
2 *521:A1 0
3 *565:A1 0
4 *522:A1 0
5 *552:A1 0
6 *536:A1 0
7 *529:A1 3.35682e-05
8 *568:A1 0
9 *535:A1 0
10 *530:A1 6.59239e-06
11 *531:A1 0
12 *524:A1 6.97724e-06
13 *532:A1 0
14 *525:A1 0
15 *526:A1 0
16 *534:A1 0
17 *527:A1 2.39735e-05
18 *533:A1 3.10765e-05
19 *567:A1 0
20 *523:A1 3.4098e-05
21 *556:C2 1.50173e-05
22 *566:A1 1.96942e-05
23 *335:ZN 8.30486e-05
24 *234:210 0.000103054
25 *234:106 5.50501e-05
26 *234:104 5.36474e-05
27 *234:100 8.66982e-05
28 *234:98 7.9462e-05
29 *234:92 6.95823e-05
30 *234:90 6.29219e-05
31 *234:68 6.51239e-05
32 *234:64 0.000130487
33 *234:58 0.00018139
34 *234:45 0.000218857
35 *234:43 0.000121195
36 *234:41 7.78502e-05
37 *234:37 4.86153e-05
38 *234:35 5.89883e-05
39 *234:29 9.01006e-05
40 *234:23 6.09118e-05
41 *234:21 5.11156e-05
42 *234:10 0.000124252
43 *523:A1 *523:A2 2.39679e-06
44 *523:A1 *524:A2 0
45 *523:A1 *527:A2 3.09411e-06
46 *523:A1 *306:23 1.68643e-06
47 *524:A1 *308:25 1.76665e-06
48 *527:A1 *306:23 9.5257e-06
49 *528:A1 *278:14 1.1425e-05
50 *528:A1 *312:13 2.75346e-06
51 *528:A1 *328:59 0
52 *529:A1 *529:A2 1.92742e-05
53 *530:A1 result[1] 2.94455e-05
54 *530:A1 result[6] 2.94455e-05
55 *556:C2 negative 1.96924e-05
56 *556:C2 overflow 5.46432e-05
57 *234:10 *566:A2 2.39679e-06
58 *234:10 *590:CK 2.32275e-05
59 *234:29 *522:A2 2.39679e-06
60 *234:29 *565:A2 5.20563e-05
61 *234:29 *590:CK 2.88302e-05
62 *234:29 *327:45 6.27971e-05
63 *234:37 *536:A2 2.75346e-06
64 *234:37 *566:A2 1.82661e-05
65 *234:41 *536:A2 1.85634e-05
66 *234:41 *566:A2 3.19164e-07
67 *234:43 *529:A2 3.45517e-05
68 *234:43 *536:A2 3.58094e-06
69 *234:45 *535:A2 2.39679e-06
70 *234:58 *535:A2 4.43198e-05
71 *234:58 *291:13 4.72442e-05
72 *234:64 *531:A2 4.07694e-05
73 *234:64 *291:13 6.37548e-06
74 *234:64 *307:9 5.25128e-05
75 *234:64 *308:25 2.14856e-06
76 *234:68 *309:21 0
77 *234:90 *531:A2 2.39679e-06
78 *234:90 *307:9 2.67903e-05
79 *234:90 *308:25 2.15875e-05
80 *234:92 *532:A2 4.13019e-05
81 *234:92 *307:9 2.19193e-05
82 *234:92 *308:25 2.86475e-06
83 *234:98 *532:A2 2.75346e-06
84 *234:98 *307:9 5.1186e-05
85 *234:100 *527:A2 0
86 *234:100 *307:9 4.88515e-05
87 *234:104 *527:A2 0
88 *234:104 *534:A2 4.26671e-06
89 *234:104 *307:9 6.22621e-05
90 *552:A2 *234:35 5.46453e-05
91 *552:A2 *234:37 7.72537e-06
92 *556:C1 *234:41 0
93 *556:C1 *234:43 2.39679e-06
94 *556:C1 *234:45 4.79279e-05
95 *571:D *523:A1 1.72405e-05
96 *572:D *234:104 0
97 *573:D *527:A1 2.72171e-06
98 *573:D *533:A1 4.12911e-06
99 *575:D *523:A1 1.2471e-05
100 *575:D *234:68 1.77822e-05
101 *579:D *234:10 3.65322e-06
102 *579:D *234:21 5.75004e-07
103 *579:D *234:210 5.38636e-06
104 *583:D *234:98 3.82997e-06
105 *586:D *528:A1 3.02351e-05
106 *587:D *528:A1 6.25847e-06
107 *587:D *234:210 3.49085e-06
108 *591:D *234:45 3.37286e-06
109 *591:D *234:58 5.06706e-05
110 *591:D *234:64 4.67213e-05
111 *599:D *234:35 7.65279e-06
112 *218:18 *234:35 4.7875e-06
113 *218:43 *234:43 2.59372e-05
*RES
1 *335:ZN *234:10 19.6786 
2 *234:10 *566:A1 11.6071 
3 *234:10 *234:21 1.60714 
4 *234:21 *234:23 5 
5 *234:23 *234:29 11.4286 
6 *234:29 *234:35 13.6429 
7 *234:35 *234:37 4.75 
8 *234:37 *234:41 3.35714 
9 *234:41 *234:43 4.25 
10 *234:43 *234:45 10.25 
11 *234:45 *556:C2 17.9643 
12 *234:45 *234:58 14.75 
13 *234:58 *234:64 11.4286 
14 *234:64 *234:68 7.96429 
15 *234:68 *523:A1 14.4643 
16 *234:68 *567:A1 10 
17 *234:64 *234:90 5.75 
18 *234:90 *234:92 4.75 
19 *234:92 *234:98 6.92857 
20 *234:98 *234:100 4.75 
21 *234:100 *234:104 7.35715 
22 *234:104 *234:106 5 
23 *234:106 *533:A1 12.9643 
24 *234:106 *527:A1 12.9643 
25 *234:104 *534:A1 5 
26 *234:100 *526:A1 5 
27 *234:98 *525:A1 5 
28 *234:92 *532:A1 5 
29 *234:90 *524:A1 5.92857 
30 *234:64 *531:A1 5 
31 *234:58 *530:A1 16.6071 
32 *234:45 *535:A1 5 
33 *234:43 *568:A1 5 
34 *234:41 *529:A1 10.6071 
35 *234:37 *536:A1 5 
36 *234:35 *552:A1 5 
37 *234:29 *522:A1 5 
38 *234:23 *565:A1 5 
39 *234:21 *234:210 2.96429 
40 *234:210 *521:A1 10 
41 *234:210 *528:A1 18.8929 
*END

*D_NET *235 0.000219124
*CONN
*I *357:A1 I *D OR3_X1
*I *355:B2 I *D OAI21_X1
*I *336:ZN O *D AND2_X1
*CAP
1 *357:A1 4.30064e-05
2 *355:B2 2.63249e-05
3 *336:ZN 0
4 *235:4 6.93312e-05
5 *355:B2 *324:95 5.52692e-06
6 *355:B2 *328:16 0
7 *357:A1 *324:93 7.94125e-06
8 *336:A2 *355:B2 2.75346e-06
9 *355:A *355:B2 1.91498e-06
10 *355:B1 *355:B2 7.16188e-07
11 *45:14 *357:A1 4.12911e-06
12 *218:12 *357:A1 5.74801e-05
*RES
1 *336:ZN *235:4 5 
2 *235:4 *355:B2 8.17857 
3 *235:4 *357:A1 21.1429 
*END

*D_NET *236 0.000126147
*CONN
*I *352:B2 I *D AOI21_X1
*I *349:A1 I *D NAND2_X1
*I *337:ZN O *D NAND2_X1
*CAP
1 *352:B2 0
2 *349:A1 8.71307e-06
3 *337:ZN 5.03347e-05
4 *236:8 5.90478e-05
5 *236:8 *247:20 7.20802e-06
6 *236:8 *328:35 0
7 *351:A *349:A1 0
8 *351:A *236:8 0
9 *352:A *236:8 8.43215e-07
10 *42:10 *236:8 0
*RES
1 *337:ZN *236:8 10.1786 
2 *236:8 *349:A1 5.92857 
3 *236:8 *352:B2 5 
*END

*D_NET *237 0.000246181
*CONN
*I *348:A1 I *D OR3_X1
*I *446:A I *D OAI21_X1
*I *338:ZN O *D XNOR2_X1
*CAP
1 *348:A1 2.25872e-05
2 *446:A 3.98048e-05
3 *338:ZN 0
4 *237:6 6.2392e-05
5 *348:A1 *348:A2 2.38892e-05
6 *348:A1 *446:B1 1.2453e-05
7 *348:A1 *238:10 7.19036e-06
8 *446:A *446:B1 7.40386e-05
9 *446:A *302:12 2.52965e-06
10 *446:A *302:25 4.32144e-07
11 *338:B *348:A1 4.32144e-07
12 *492:A2 *348:A1 0
13 *492:A2 *446:A 0
14 *188:22 *348:A1 4.32144e-07
*RES
1 *338:ZN *237:6 10 
2 *237:6 *446:A 14.8929 
3 *237:6 *348:A1 12.8571 
*END

*D_NET *238 0.000438944
*CONN
*I *348:A2 I *D OR3_X1
*I *446:B1 I *D OAI21_X1
*I *339:ZN O *D NOR2_X1
*CAP
1 *348:A2 1.5756e-05
2 *446:B1 2.94235e-05
3 *339:ZN 4.4175e-05
4 *238:10 8.93544e-05
5 *348:A2 *348:A3 2.39679e-06
6 *446:B1 *446:B2 1.21774e-06
7 *238:10 *348:A3 4.32144e-07
8 *238:10 *301:32 0
9 *238:10 *302:12 6.06412e-06
10 *338:B *238:10 5.90251e-06
11 *348:A1 *348:A2 2.38892e-05
12 *348:A1 *446:B1 1.2453e-05
13 *348:A1 *238:10 7.19036e-06
14 *446:A *446:B1 7.40386e-05
15 *447:A3 *348:A2 2.4406e-05
16 *447:A3 *446:B1 9.22979e-05
17 *46:20 *238:10 0
18 *46:26 *238:10 8.26038e-06
19 *188:22 *348:A2 1.68643e-06
*RES
1 *339:ZN *238:10 15.1786 
2 *238:10 *446:B1 15.75 
3 *238:10 *348:A2 12.3571 
*END

*D_NET *239 0.000251512
*CONN
*I *346:A I *D AOI21_X1
*I *347:A I *D AOI221_X1
*I *340:ZN O *D AND2_X1
*CAP
1 *346:A 4.08976e-05
2 *347:A 6.12881e-06
3 *340:ZN 1.56678e-05
4 *239:8 6.26941e-05
5 *346:A *347:B1 8.7034e-06
6 *346:A *462:A 2.86425e-05
7 *346:A *300:36 1.61002e-06
8 *346:A *301:10 1.72426e-05
9 *346:A *301:23 1.2453e-05
10 *347:A *347:B1 7.19036e-06
11 *239:8 *300:21 7.66675e-07
12 *239:8 *300:36 7.65279e-06
13 *239:8 *301:10 4.16464e-05
14 *347:C1 *347:A 2.16072e-07
15 *46:26 *346:A 0
*RES
1 *340:ZN *239:8 12.2857 
2 *239:8 *347:A 10.75 
3 *239:8 *346:A 15.8571 
*END

*D_NET *240 0.000286188
*CONN
*I *344:A I *D OAI21_X1
*I *341:ZN O *D NAND2_X1
*CAP
1 *344:A 8.56013e-05
2 *341:ZN 8.56013e-05
3 *344:A *341:A1 7.72792e-06
4 *344:A *343:A 2.23415e-06
5 *344:A *344:B1 1.72426e-05
6 *344:A *242:8 2.39679e-06
7 *344:A *242:21 2.00805e-05
8 *344:A *243:6 3.04499e-05
9 *341:A2 *344:A 1.13406e-05
10 *343:B *344:A 2.35127e-05
*RES
1 *341:ZN *344:A 31.7143 
*END

*D_NET *241 0.000528088
*CONN
*I *496:B2 I *D AOI21_X1
*I *344:B1 I *D OAI21_X1
*I *495:B2 I *D OAI21_X1
*I *342:ZN O *D NOR2_X1
*CAP
1 *496:B2 0
2 *344:B1 3.22016e-05
3 *495:B2 7.17197e-06
4 *342:ZN 1.98507e-05
5 *241:8 7.94376e-05
6 *241:6 5.99147e-05
7 *344:B1 *242:8 8.43215e-07
8 *344:B1 *242:21 0.000121745
9 *344:B1 *243:6 2.75346e-06
10 *495:B2 *495:B1 7.19036e-06
11 *241:6 *342:A1 2.35379e-05
12 *241:6 *496:B1 8.43215e-07
13 *241:8 *495:B1 7.19036e-06
14 *241:8 *496:B1 3.27185e-05
15 *342:A2 *241:6 3.07282e-05
16 *342:A2 *241:8 2.39679e-06
17 *344:A *344:B1 1.72426e-05
18 *495:A *344:B1 8.23224e-05
19 *495:A *241:8 0
*RES
1 *342:ZN *241:6 8.25 
2 *241:6 *241:8 5.25 
3 *241:8 *495:B2 5.75 
4 *241:8 *344:B1 22.1071 
5 *241:6 *496:B2 5 
*END

*D_NET *242 0.000524931
*CONN
*I *496:B1 I *D AOI21_X1
*I *495:B1 I *D OAI21_X1
*I *344:B2 I *D OAI21_X1
*I *343:ZN O *D XNOR2_X1
*CAP
1 *496:B1 3.4825e-05
2 *495:B1 2.00346e-05
3 *344:B2 0
4 *343:ZN 2.03077e-05
5 *242:21 0.000121881
6 *242:8 8.73289e-05
7 *242:8 *343:A 0
8 *242:21 *243:6 7.72537e-06
9 *242:21 *315:14 0
10 *344:A *242:8 2.39679e-06
11 *344:A *242:21 2.00805e-05
12 *344:B1 *242:8 8.43215e-07
13 *344:B1 *242:21 0.000121745
14 *495:A *242:21 4.12796e-06
15 *495:B2 *495:B1 7.19036e-06
16 *496:A *495:B1 7.29164e-07
17 *496:A *496:B1 3.4964e-05
18 *241:6 *496:B1 8.43215e-07
19 *241:8 *495:B1 7.19036e-06
20 *241:8 *496:B1 3.27185e-05
*RES
1 *343:ZN *242:8 7.17857 
2 *242:8 *344:B2 5 
3 *242:8 *242:21 19.6429 
4 *242:21 *495:B1 7.17857 
5 *242:21 *496:B1 10.9286 
*END

*D_NET *243 0.000571219
*CONN
*I *346:B1 I *D AOI21_X1
*I *347:B1 I *D AOI221_X1
*I *489:A I *D XOR2_X1
*I *344:ZN O *D OAI21_X1
*CAP
1 *346:B1 0
2 *347:B1 4.30785e-05
3 *489:A 0
4 *344:ZN 0.000111916
5 *243:19 7.18626e-05
6 *243:6 0.000140701
7 *347:B1 *347:B2 4.47626e-05
8 *347:B1 *462:A 7.77781e-06
9 *347:B1 *244:19 2.75346e-06
10 *347:B1 *246:8 0
11 *243:6 *341:A1 2.42487e-05
12 *243:6 *345:A 0
13 *243:6 *244:6 0
14 *243:6 *244:19 0
15 *243:19 *489:B 2.2331e-05
16 *243:19 *244:19 0
17 *243:19 *300:36 1.0968e-05
18 *243:19 *316:8 2.3767e-06
19 *344:A *243:6 3.04499e-05
20 *344:B1 *243:6 2.75346e-06
21 *346:A *347:B1 8.7034e-06
22 *347:A *347:B1 7.19036e-06
23 *495:A *243:6 1.66148e-05
24 *46:28 *243:6 1.40478e-05
25 *46:28 *243:19 9.57492e-07
26 *242:21 *243:6 7.72537e-06
*RES
1 *344:ZN *243:6 19.75 
2 *243:6 *489:A 5 
3 *243:6 *243:19 14.3929 
4 *243:19 *347:B1 11.8571 
5 *243:19 *346:B1 5 
*END

*D_NET *244 0.000400034
*CONN
*I *346:B2 I *D AOI21_X1
*I *347:B2 I *D AOI221_X1
*I *489:B I *D XOR2_X1
*I *345:Z O *D XOR2_X1
*CAP
1 *346:B2 0
2 *347:B2 3.33873e-05
3 *489:B 1.97923e-05
4 *345:Z 2.37004e-05
5 *244:19 4.07936e-05
6 *244:6 5.0899e-05
7 *347:B2 *345:A 3.28568e-05
8 *489:B *300:36 0
9 *489:B *316:8 8.22158e-05
10 *244:6 *345:A 3.50842e-05
11 *244:19 *345:A 6.72466e-06
12 *340:A2 *347:B2 4.73284e-06
13 *347:B1 *347:B2 4.47626e-05
14 *347:B1 *244:19 2.75346e-06
15 *243:6 *244:6 0
16 *243:6 *244:19 0
17 *243:19 *489:B 2.2331e-05
18 *243:19 *244:19 0
*RES
1 *345:Z *244:6 8.25 
2 *244:6 *489:B 19.3214 
3 *244:6 *244:19 1.25 
4 *244:19 *347:B2 10.6786 
5 *244:19 *346:B2 5 
*END

*D_NET *245 0.000405603
*CONN
*I *462:A I *D XNOR2_X1
*I *346:ZN O *D AOI21_X1
*CAP
1 *462:A 8.32628e-05
2 *346:ZN 8.32628e-05
3 *462:A *277:10 0
4 *462:A *300:36 4.24402e-05
5 *462:A *301:23 6.50283e-06
6 *462:A *301:32 7.16188e-07
7 *462:A *317:8 2.99872e-05
8 *346:A *462:A 2.86425e-05
9 *347:B1 *462:A 7.77781e-06
10 *347:C1 *462:A 6.8304e-05
11 *461:B *462:A 2.50108e-05
12 *5:17 *462:A 2.96955e-05
13 *46:26 *462:A 0
*RES
1 *346:ZN *462:A 44.0714 
*END

*D_NET *246 0.000714074
*CONN
*I *446:B2 I *D OAI21_X1
*I *348:A3 I *D OR3_X1
*I *347:ZN O *D AOI221_X1
*CAP
1 *446:B2 7.61466e-06
2 *348:A3 3.72781e-05
3 *347:ZN 0.000146973
4 *246:8 0.000191866
5 *348:A3 *576:CK 0
6 *446:B2 *302:12 0
7 *246:8 *302:12 0
8 *246:8 *324:27 0
9 *339:A2 *246:8 0
10 *347:B1 *246:8 0
11 *347:C1 *246:8 1.64723e-05
12 *348:A2 *348:A3 2.39679e-06
13 *446:B1 *446:B2 1.21774e-06
14 *447:A3 *348:A3 0.000144818
15 *46:26 *246:8 0
16 *188:22 *348:A3 0.000165005
17 *238:10 *348:A3 4.32144e-07
*RES
1 *347:ZN *246:8 20.8571 
2 *246:8 *348:A3 24.1429 
3 *246:8 *446:B2 5.75 
*END

*D_NET *247 0.000927416
*CONN
*I *447:A1 I *D NAND3_X1
*I *352:B1 I *D AOI21_X1
*I *349:A2 I *D NAND2_X1
*I *348:ZN O *D OR3_X1
*CAP
1 *447:A1 2.20345e-05
2 *352:B1 0
3 *349:A2 1.68587e-05
4 *348:ZN 0
5 *247:20 0.000208518
6 *247:6 0.000213694
7 *247:20 *337:A1 3.64709e-05
8 *247:20 *423:A 7.19036e-06
9 *247:20 *285:8 1.80259e-05
10 *247:20 *328:35 0
11 *337:A2 *247:20 0
12 *338:B *247:20 0
13 *352:A *247:20 2.39679e-06
14 *447:A3 *247:20 2.08098e-06
15 *459:A1 *447:A1 2.39679e-06
16 *478:A2 *247:20 9.01846e-07
17 *492:A2 *247:20 1.87369e-06
18 *553:A4 *247:20 2.97556e-05
19 *554:A4 *247:20 0.000140833
20 *555:B2 *349:A2 6.89712e-05
21 *555:B2 *247:20 2.54476e-05
22 *46:16 *447:A1 1.80259e-05
23 *46:20 *447:A1 2.75346e-06
24 *133:14 *349:A2 1.52648e-05
25 *133:14 *247:20 5.56936e-06
26 *177:22 *447:A1 2.1932e-05
27 *177:22 *247:20 4.31882e-06
28 *188:12 *447:A1 3.76506e-05
29 *188:12 *247:20 1.72426e-05
30 *236:8 *247:20 7.20802e-06
*RES
1 *348:ZN *247:6 10 
2 *247:6 *247:20 37.6429 
3 *247:20 *349:A2 13.6429 
4 *247:20 *352:B1 10 
5 *247:6 *447:A1 14.0357 
*END

*D_NET *248 0.000216312
*CONN
*I *423:A I *D XNOR2_X1
*I *349:ZN O *D NAND2_X1
*CAP
1 *423:A 2.00613e-05
2 *349:ZN 2.00613e-05
3 *423:A *322:104 8.11762e-05
4 *554:A4 *423:A 7.19036e-06
5 *555:B2 *423:A 8.06325e-05
6 *247:20 *423:A 7.19036e-06
*RES
1 *349:ZN *423:A 25.0714 
*END

*D_NET *272 0.000373726
*CONN
*P alu_op[0] I
*I *536:A2 I *D AND2_X1
*CAP
1 alu_op[0] 9.89205e-05
2 *536:A2 9.89205e-05
3 *536:A2 *529:A2 6.32257e-05
4 *536:A2 *566:A2 3.93453e-05
5 *536:A2 *309:15 1.61905e-05
6 *218:43 *536:A2 3.22252e-05
7 *234:37 *536:A2 2.75346e-06
8 *234:41 *536:A2 1.85634e-05
9 *234:43 *536:A2 3.58094e-06
*RES
1 alu_op[0] *536:A2 24.9464 
*END

*D_NET *273 0.000371778
*CONN
*P alu_op[1] I
*I *535:A2 I *D AND2_X1
*CAP
1 alu_op[1] 7.16431e-05
2 *535:A2 7.16431e-05
3 *535:A2 *291:7 5.81138e-05
4 *535:A2 *297:15 7.18184e-06
5 *535:A2 *308:25 7.216e-05
6 *591:D *535:A2 4.43198e-05
7 *234:45 *535:A2 2.39679e-06
8 *234:58 *535:A2 4.43198e-05
*RES
1 alu_op[1] *535:A2 24.0893 
*END

*D_NET *274 0.000543203
*CONN
*P alu_op[2] I
*I *567:A2 I *D AND2_X1
*CAP
1 alu_op[2] 0.000121907
2 *567:A2 0.000121907
3 *567:A2 result[6] 1.43637e-05
4 *567:A2 *527:A2 4.35247e-05
5 *567:A2 *591:CK 3.38384e-05
6 *567:A2 *290:7 8.7996e-05
7 *567:A2 *307:9 6.22417e-05
8 *567:A2 *308:25 5.74249e-05
*RES
1 alu_op[2] *567:A2 31.4822 
*END

*D_NET *275 0.00263879
*CONN
*I *392:A2 I *D NOR3_X1
*I *396:A2 I *D NOR3_X1
*I *413:A3 I *D NAND4_X1
*I *407:A2 I *D NAND3_X1
*I *385:A1 I *D OR2_X1
*I *333:A I *D INV_X1
*I *398:A1 I *D NAND2_X1
*I *569:Q O *D DFF_X1
*CAP
1 *392:A2 2.17322e-05
2 *396:A2 3.716e-05
3 *413:A3 5.17015e-06
4 *407:A2 6.16709e-06
5 *385:A1 0
6 *333:A 4.15993e-05
7 *398:A1 2.12341e-05
8 *569:Q 0.000197854
9 *275:66 4.23301e-05
10 *275:64 4.05612e-05
11 *275:53 5.73711e-05
12 *275:35 4.53606e-05
13 *275:33 9.44069e-05
14 *275:18 0.000274731
15 *275:16 0.000393081
16 *333:A *334:A 4.5563e-05
17 *333:A *363:A2 0
18 *333:A *393:A1 2.39679e-06
19 *333:A *276:57 4.79358e-06
20 *333:A *302:55 0
21 *392:A2 *413:A1 2.52965e-06
22 *396:A2 *396:A1 3.18458e-05
23 *396:A2 *413:A2 2.15711e-05
24 *398:A1 *276:12 8.43215e-07
25 *407:A2 *407:A1 7.19036e-06
26 *413:A3 *413:A2 7.19036e-06
27 *275:16 *328:59 0
28 *275:18 result[3] 0.000292989
29 *275:18 *322:62 1.56073e-06
30 *275:33 *393:A1 9.76549e-06
31 *275:33 *397:A3 2.15711e-05
32 *275:35 *393:A1 5.33113e-06
33 *275:35 *397:A3 4.79358e-06
34 *275:35 *276:57 2.39679e-06
35 *392:A1 *392:A2 7.86537e-06
36 *392:A3 *392:A2 4.93557e-05
37 *392:A3 *275:64 1.5916e-05
38 *396:A3 *396:A2 4.86645e-05
39 *396:A3 *413:A3 7.19036e-06
40 *397:A1 *407:A2 3.19164e-07
41 *397:A2 *275:53 6.60545e-05
42 *400:A2 *398:A1 2.39679e-06
43 *520:B2 *392:A2 6.63045e-05
44 *520:B2 *275:18 3.1367e-05
45 *520:B2 *275:33 6.71335e-06
46 *520:B2 *275:53 0.000129696
47 *520:B2 *275:64 5.03745e-05
48 *577:D *275:16 7.09583e-05
49 *597:D *275:16 0
50 *598:D *275:18 1.83472e-05
51 *15:10 *275:18 1.49161e-05
52 *46:93 *398:A1 5.41504e-06
53 *46:93 *275:18 0
54 *52:8 *396:A2 0
55 *69:34 *333:A 4.29713e-06
56 *69:34 *275:33 3.37286e-06
57 *76:65 *398:A1 1.06847e-05
58 *76:65 *275:33 8.22158e-05
59 *83:12 *275:53 9.72832e-06
60 *86:18 *392:A2 6.82202e-07
61 *90:10 *275:33 0.000120408
62 *109:10 *275:18 1.62643e-06
63 *109:10 *275:33 3.89891e-06
64 *189:30 *275:18 0
65 *221:18 *275:16 0
66 *232:12 *333:A 1.57425e-05
67 *233:8 *407:A2 2.39679e-06
68 *233:12 *275:53 1.66988e-05
69 *233:12 *275:64 3.4091e-05
*RES
1 *569:Q *275:16 30 
2 *275:16 *275:18 26.5357 
3 *275:18 *398:A1 12.75 
4 *275:18 *275:33 15.6429 
5 *275:33 *275:35 0.75 
6 *275:35 *333:A 11.3571 
7 *275:35 *385:A1 5 
8 *275:33 *275:53 12.0357 
9 *275:53 *407:A2 10.75 
10 *275:53 *275:64 2.96429 
11 *275:64 *275:66 5 
12 *275:66 *413:A3 5.75 
13 *275:66 *396:A2 11.4286 
14 *275:64 *392:A2 14.3929 
*END

*D_NET *276 0.00129907
*CONN
*I *398:A2 I *D NAND2_X1
*I *397:A3 I *D NAND3_X1
*I *385:A2 I *D OR2_X1
*I *334:A I *D INV_X1
*I *393:A3 I *D NAND3_X1
*I *356:A3 I *D NOR3_X1
*I *570:Q O *D DFF_X1
*CAP
1 *398:A2 0
2 *397:A3 6.67986e-05
3 *385:A2 0
4 *334:A 6.46878e-05
5 *393:A3 4.62565e-06
6 *356:A3 0
7 *570:Q 8.97164e-05
8 *276:57 7.19687e-05
9 *276:40 9.4294e-05
10 *276:27 5.14681e-05
11 *276:16 4.62008e-05
12 *276:12 0.000113511
13 *397:A3 *277:67 2.08098e-06
14 *276:12 *277:24 5.94783e-07
15 *276:16 *277:24 6.63045e-05
16 *276:16 *277:39 1.72426e-05
17 *276:27 *277:39 2.54476e-05
18 *333:A *334:A 4.5563e-05
19 *333:A *276:57 4.79358e-06
20 *356:A2 *276:27 4.4878e-05
21 *356:A2 *276:40 2.60713e-06
22 *397:A1 *397:A3 1.24626e-05
23 *397:A2 *276:40 5.48932e-05
24 *398:A1 *276:12 8.43215e-07
25 *400:A2 *276:12 2.16072e-07
26 *451:A2 *334:A 4.97446e-06
27 *460:A2 *276:12 2.79484e-05
28 *510:B *276:12 2.94435e-05
29 *520:B1 *276:12 0
30 *520:B2 *276:12 0
31 *520:B2 *276:16 2.79509e-05
32 *520:B2 *276:27 5.11191e-06
33 *595:D *276:12 6.22012e-06
34 *15:10 *276:12 7.54346e-07
35 *46:10 *276:12 3.49085e-06
36 *46:16 *276:12 1.62366e-05
37 *46:93 *276:12 3.93453e-05
38 *53:32 *334:A 5.05375e-05
39 *53:32 *397:A3 3.18741e-05
40 *53:32 *276:57 7.19036e-06
41 *69:34 *334:A 1.27666e-06
42 *69:34 *393:A3 7.72537e-06
43 *69:34 *397:A3 1.18589e-06
44 *75:14 *334:A 2.90163e-06
45 *83:12 *334:A 0
46 *83:12 *276:40 1.045e-05
47 *88:6 *276:12 4.97191e-06
48 *88:8 *276:12 2.90423e-05
49 *90:10 *397:A3 9.77674e-06
50 *90:22 *334:A 6.85774e-07
51 *90:22 *397:A3 2.15711e-05
52 *90:76 *397:A3 1.26998e-05
53 *92:14 *334:A 1.9695e-05
54 *109:10 *397:A3 5.25718e-06
55 *146:14 *334:A 3.602e-06
56 *232:12 *393:A3 7.19036e-06
57 *275:33 *397:A3 2.15711e-05
58 *275:35 *397:A3 4.79358e-06
59 *275:35 *276:57 2.39679e-06
*RES
1 *570:Q *276:12 27.8214 
2 *276:12 *276:16 9.32143 
3 *276:16 *356:A3 10 
4 *276:16 *276:27 3.71429 
5 *276:27 *393:A3 10.75 
6 *276:27 *276:40 8.64286 
7 *276:40 *334:A 24.5714 
8 *276:40 *276:57 0.75 
9 *276:57 *385:A2 5 
10 *276:57 *397:A3 23.7857 
11 *276:12 *398:A2 5 
*END

*D_NET *277 0.00322726
*CONN
*I *387:A1 I *D OR2_X1
*I *386:A1 I *D NOR2_X1
*I *474:A1 I *D NOR3_X1
*I *510:A I *D OAI211_X1
*I *396:A1 I *D NOR3_X1
*I *413:A2 I *D NAND4_X1
*I *407:A1 I *D NAND3_X1
*I *332:A I *D INV_X1
*I *393:A1 I *D NAND3_X1
*I *356:A1 I *D NOR3_X1
*I *400:A1 I *D NOR2_X1
*I *571:Q O *D DFF_X1
*CAP
1 *387:A1 9.88598e-06
2 *386:A1 2.90074e-05
3 *474:A1 5.32723e-06
4 *510:A 3.39042e-06
5 *396:A1 2.48981e-05
6 *413:A2 1.98189e-05
7 *407:A1 2.24826e-05
8 *332:A 2.70134e-05
9 *393:A1 2.08009e-05
10 *356:A1 0
11 *400:A1 4.72852e-06
12 *571:Q 0.000199853
13 *277:131 0.000113812
14 *277:116 0.000145684
15 *277:91 7.38802e-05
16 *277:78 5.7629e-05
17 *277:67 8.36652e-05
18 *277:50 9.90346e-05
19 *277:39 4.75011e-05
20 *277:24 6.97329e-05
21 *277:20 0.000200651
22 *277:10 0.000417483
23 *510:A *478:A1 6.38328e-07
24 *277:10 *575:CK 0
25 *277:10 *302:12 6.73568e-05
26 *277:10 *317:8 0
27 *277:10 *324:27 2.01398e-05
28 *277:10 *326:42 1.91498e-06
29 *277:10 *326:46 9.57492e-06
30 *277:20 *478:A1 1.91498e-06
31 *333:A *393:A1 2.39679e-06
32 *356:A2 *277:50 4.79358e-06
33 *379:A2 *474:A1 7.72537e-06
34 *387:A2 *386:A1 2.10772e-05
35 *387:A2 *387:A1 0
36 *387:A2 *277:131 8.43215e-07
37 *396:A2 *396:A1 3.18458e-05
38 *396:A2 *413:A2 2.15711e-05
39 *396:A3 *332:A 8.4321e-06
40 *397:A1 *332:A 1.28122e-06
41 *397:A1 *407:A1 0
42 *397:A1 *277:67 2.09871e-05
43 *397:A1 *277:78 4.95497e-06
44 *397:A1 *277:91 1.03334e-06
45 *397:A3 *277:67 2.08098e-06
46 *404:C2 *277:67 4.37715e-05
47 *404:C2 *277:78 1.19301e-05
48 *404:C2 *277:91 4.64016e-05
49 *407:A2 *407:A1 7.19036e-06
50 *413:A3 *413:A2 7.19036e-06
51 *448:A *277:20 3.1962e-06
52 *448:B1 *277:20 1.84625e-05
53 *459:A2 *277:20 4.69702e-07
54 *460:A2 *277:20 5.43035e-06
55 *462:A *277:10 0
56 *474:A3 *277:20 1.24675e-05
57 *475:A *277:131 4.21902e-05
58 *476:A3 *277:131 9.20438e-05
59 *477:B1 *277:10 3.86109e-06
60 *477:C1 *277:10 2.08098e-06
61 *477:C1 *277:116 7.94852e-06
62 *477:C2 *277:10 0.000131278
63 *479:A *277:10 5.48932e-05
64 *510:B *510:A 7.72792e-06
65 *510:B *277:20 2.97531e-05
66 *510:B *277:24 7.3003e-06
67 *520:B2 *277:24 6.24292e-06
68 *520:B2 *277:50 6.70962e-05
69 *520:B2 *277:67 8.78271e-05
70 *575:D *277:10 0
71 *5:17 *277:10 0
72 *46:10 *277:24 0
73 *46:10 *277:39 0
74 *46:26 *277:10 2.08098e-06
75 *46:93 *277:20 1.08719e-05
76 *52:8 *396:A1 0
77 *57:18 *474:A1 2.75346e-06
78 *69:34 *393:A1 8.95702e-06
79 *69:34 *277:39 7.19036e-06
80 *69:34 *277:50 1.19839e-05
81 *75:20 *386:A1 7.30645e-06
82 *75:24 *386:A1 1.21774e-06
83 *75:24 *387:A1 0
84 *76:10 *386:A1 3.38333e-05
85 *76:10 *277:116 0
86 *76:10 *277:131 4.79358e-06
87 *76:24 *277:20 8.99555e-06
88 *76:24 *277:116 0
89 *76:65 *400:A1 7.19036e-06
90 *76:65 *277:50 1.28122e-06
91 *77:44 *396:A1 3.73052e-05
92 *77:44 *413:A2 2.63647e-05
93 *90:10 *277:50 6.78878e-05
94 *90:10 *277:67 5.33077e-05
95 *90:76 *332:A 0
96 *92:24 *474:A1 1.87369e-06
97 *92:26 *474:A1 1.21774e-06
98 *109:10 *277:67 0
99 *109:10 *277:91 8.23414e-07
100 *146:14 *277:20 2.45416e-05
101 *163:12 *277:10 6.32461e-06
102 *163:12 *277:116 5.74175e-05
103 *163:12 *277:131 1.05877e-05
104 *164:22 *277:20 6.56341e-05
105 *164:22 *277:116 5.20238e-07
106 *188:22 *277:10 0
107 *189:30 *510:A 2.75346e-06
108 *231:21 *332:A 4.12459e-06
109 *231:21 *407:A1 2.63647e-05
110 *232:12 *393:A1 3.47617e-06
111 *275:33 *393:A1 9.76549e-06
112 *275:35 *393:A1 5.33113e-06
113 *276:12 *277:24 5.94783e-07
114 *276:16 *277:24 6.63045e-05
115 *276:16 *277:39 1.72426e-05
116 *276:27 *277:39 2.54476e-05
*RES
1 *571:Q *277:10 37.5714 
2 *277:10 *277:20 25.6786 
3 *277:20 *277:24 10.6786 
4 *277:24 *400:A1 10.75 
5 *277:24 *277:39 8.03572 
6 *277:39 *356:A1 5 
7 *277:39 *277:50 10.3929 
8 *277:50 *393:A1 12.6786 
9 *277:50 *277:67 9.21429 
10 *277:67 *332:A 13.25 
11 *277:67 *277:78 0.928572 
12 *277:78 *407:A1 12.75 
13 *277:78 *277:91 7.96429 
14 *277:91 *413:A2 7.75 
15 *277:91 *396:A1 9.42857 
16 *277:20 *510:A 5.75 
17 *277:10 *277:116 8.39286 
18 *277:116 *474:A1 10.75 
19 *277:116 *277:131 14.8214 
20 *277:131 *386:A1 9.75 
21 *277:131 *387:A1 5.92857 
*END

*D_NET *278 0.0017798
*CONN
*P carry O
*I *590:Q O *D DFF_X1
*CAP
1 carry 7.4318e-05
2 *590:Q 0.000139964
3 *278:22 0.000286009
4 *278:14 0.000351654
5 carry result[1] 0.000109125
6 carry *322:9 0.000167913
7 *278:14 result[7] 1.87375e-05
8 *278:14 *521:A2 0.000142728
9 *278:14 *565:A2 0
10 *278:14 *590:CK 0
11 *278:14 *312:13 3.19164e-06
12 *278:22 *521:A2 8.48109e-05
13 *278:22 *522:A2 5.15774e-06
14 *278:22 *523:A2 4.28905e-05
15 *278:22 *565:A2 5.99463e-05
16 *278:22 *592:CK 0.000140676
17 *278:22 *607:A 1.74934e-05
18 *278:22 *297:15 4.53624e-05
19 *278:22 *308:25 0
20 *278:22 *309:21 1.37882e-05
21 *528:A1 *278:14 1.1425e-05
22 *569:D *278:14 9.77674e-06
23 *587:D *278:14 0
24 *591:D *278:22 0
25 *593:D *278:22 1.65872e-05
26 *218:18 *278:14 3.82456e-05
*RES
1 *590:Q *278:14 35.4643 
2 *278:14 *278:22 36.4286 
3 *278:22 carry 15.2679 
*END

*D_NET *279 0.00075882
*CONN
*P clk I
*I *600:A I *D CLKBUF_X3
*CAP
1 clk 0.000168223
2 *600:A 1.45246e-05
3 *279:14 0.000182747
4 *600:A *460:A1 2.39679e-06
5 *600:A *324:6 1.08193e-05
6 *279:14 result[4] 0.000195556
7 *279:14 *523:A2 0.000112579
8 *279:14 *324:6 5.41909e-06
9 *279:14 *324:27 2.05033e-06
10 *279:14 *326:20 3.20022e-05
11 *492:A2 *279:14 1.36901e-05
12 *596:D *600:A 7.44305e-06
13 *598:D *600:A 4.3245e-06
14 *598:D *279:14 7.04409e-06
*RES
1 clk *279:14 34.8036 
2 *279:14 *600:A 7.82143 
*END

*D_NET *280 0.000766054
*CONN
*P negative O
*I *588:Q O *D DFF_X1
*CAP
1 negative 0.000117999
2 *588:Q 0.000117999
3 negative overflow 6.71189e-05
4 negative *293:11 5.44445e-05
5 negative *297:15 7.95139e-05
6 negative *309:21 2.20253e-05
7 *556:C2 negative 1.96924e-05
8 *570:D negative 0.000156771
9 *592:D negative 4.32319e-05
10 *15:10 negative 8.72584e-05
*RES
1 *588:Q negative 34.5893 
*END

*D_NET *281 0.00164777
*CONN
*P overflow O
*I *589:Q O *D DFF_X1
*CAP
1 overflow 0.000216289
2 *589:Q 0.000268221
3 *281:8 0.00048451
4 overflow result[2] 2.39222e-05
5 overflow result[5] 4.88306e-05
6 overflow *445:A1 1.84647e-05
7 overflow *522:A2 0.000180594
8 overflow *594:CK 0
9 overflow *293:11 2.27743e-05
10 overflow *324:69 0
11 overflow *324:71 0
12 *281:8 *589:CK 0
13 *281:8 *594:CK 1.32348e-05
14 *281:8 *322:85 6.82202e-07
15 *281:8 *322:128 9.61005e-05
16 *281:8 *324:53 2.39679e-06
17 *281:8 *324:60 5.91873e-06
18 *281:8 *324:69 1.61446e-06
19 *281:8 *324:93 0
20 *281:8 *327:23 6.06571e-05
21 *281:8 *328:59 0
22 *281:8 *328:66 0
23 negative overflow 6.71189e-05
24 *422:A2 *281:8 1.20897e-05
25 *445:A2 overflow 1.04048e-06
26 *556:C2 overflow 5.46432e-05
27 *577:D *281:8 3.09411e-06
28 *592:D overflow 1.58752e-05
29 *597:D overflow 3.26648e-06
30 *15:10 overflow 4.64333e-05
*RES
1 *589:Q *281:8 43.75 
2 *281:8 overflow 44.6607 
*END

*D_NET *282 0.00045163
*CONN
*P result[0] O
*I *592:Q O *D DFF_X1
*CAP
1 result[0] 0.000115889
2 *592:Q 0.000115889
3 result[0] result[4] 0.000139125
4 result[0] *297:15 0
5 result[0] *308:25 8.07266e-05
6 *570:D result[0] 0
*RES
1 *592:Q result[0] 29.3393 
*END

*D_NET *283 0.000607198
*CONN
*P result[1] O
*I *593:Q O *D DFF_X1
*CAP
1 result[1] 0.000134982
2 *593:Q 0.000134982
3 result[1] result[6] 0.000119402
4 result[1] *504:A1 2.94435e-05
5 result[1] *524:A2 3.40167e-05
6 result[1] *322:9 4.45767e-06
7 result[1] *322:30 1.13438e-05
8 result[1] *326:42 0
9 carry result[1] 0.000109125
10 *530:A1 result[1] 2.94455e-05
*RES
1 *593:Q result[1] 33.2679 
*END

*D_NET *284 0.000890959
*CONN
*P result[2] O
*I *594:Q O *D DFF_X1
*CAP
1 result[2] 0.000155416
2 *594:Q 3.47309e-05
3 *284:14 0.000190147
4 result[2] result[3] 0.000194567
5 result[2] *522:A2 0.000105302
6 result[2] *322:45 2.08098e-06
7 *284:14 *460:A1 1.25189e-05
8 *284:14 *594:CK 3.19164e-07
9 *284:14 *324:38 8.43215e-07
10 *284:14 *324:47 1.16194e-05
11 overflow result[2] 2.39222e-05
12 *570:D *284:14 5.59765e-05
13 *598:D result[2] 2.96955e-05
14 *598:D *284:14 6.56007e-06
15 *15:10 result[2] 1.18223e-05
16 *15:10 *284:14 5.54369e-05
*RES
1 *594:Q *284:14 26.2143 
2 *284:14 result[2] 27.4822 
*END

*D_NET *285 0.00124504
*CONN
*P result[3] O
*I *595:Q O *D DFF_X1
*CAP
1 result[3] 0.000256999
2 *595:Q 9.52268e-06
3 *285:8 0.000266522
4 result[3] result[5] 0.000169746
5 *285:8 *337:A1 1.80259e-05
6 result[2] result[3] 0.000194567
7 *422:A2 result[3] 0
8 *597:D result[3] 1.62377e-05
9 *598:D result[3] 2.40655e-06
10 *247:20 *285:8 1.80259e-05
11 *275:18 result[3] 0.000292989
*RES
1 *595:Q *285:8 11.75 
2 *285:8 result[3] 43.7679 
*END

*D_NET *286 0.000793866
*CONN
*P result[4] O
*I *596:Q O *D DFF_X1
*CAP
1 result[4] 0.000201128
2 *596:Q 0.000201128
3 result[4] *326:14 1.87392e-05
4 result[0] result[4] 0.000139125
5 *460:A2 result[4] 1.32576e-05
6 *492:A2 result[4] 1.21774e-05
7 *596:D result[4] 1.27537e-05
8 *279:14 result[4] 0.000195556
*RES
1 *596:Q result[4] 43.3036 
*END

*D_NET *287 0.000959723
*CONN
*P result[5] O
*I *597:Q O *D DFF_X1
*CAP
1 result[5] 0.000253953
2 *597:Q 0.000253953
3 result[5] *445:A1 7.66765e-06
4 result[5] *293:11 1.78252e-06
5 result[5] *312:13 0.000171663
6 result[5] *322:62 5.52959e-06
7 result[5] *322:66 1.59582e-06
8 result[5] *322:85 2.55787e-06
9 result[5] *328:35 0
10 overflow result[5] 4.88306e-05
11 result[3] result[5] 0.000169746
12 *422:A2 result[5] 0
13 *597:D result[5] 4.24423e-05
*RES
1 *597:Q result[5] 48.6607 
*END

*D_NET *288 0.00105342
*CONN
*P result[6] O
*I *598:Q O *D DFF_X1
*CAP
1 result[6] 0.000190264
2 *598:Q 0.000190264
3 result[6] *504:A1 2.99872e-05
4 result[6] *290:7 8.48809e-07
5 result[6] *307:9 6.22417e-05
6 result[6] *322:30 1.58414e-05
7 result[1] result[6] 0.000119402
8 *530:A1 result[6] 2.94455e-05
9 *567:A2 result[6] 1.43637e-05
10 *576:D result[6] 0
11 *188:22 result[6] 0.000400759
*RES
1 *598:Q result[6] 44.9464 
*END

*D_NET *289 0.000948915
*CONN
*P result[7] O
*I *599:Q O *D DFF_X1
*CAP
1 result[7] 0.000203195
2 *599:Q 0.000203195
3 result[7] *521:A2 9.46569e-06
4 result[7] *293:11 0.000130073
5 result[7] *309:21 6.56366e-05
6 result[7] *312:13 0.000282068
7 *569:D result[7] 2.52965e-06
8 *218:18 result[7] 3.40142e-05
9 *278:14 result[7] 1.87375e-05
*RES
1 *599:Q result[7] 46.9107 
*END

*D_NET *290 0.00105452
*CONN
*P rs1[0] I
*I *527:A2 I *D AND2_X1
*CAP
1 rs1[0] 7.99005e-05
2 *527:A2 0.000234177
3 *290:7 0.000314077
4 *527:A2 *523:A2 1.48807e-05
5 *527:A2 *532:A2 0
6 *527:A2 *534:A2 2.55787e-06
7 *527:A2 *591:CK 2.35353e-05
8 *527:A2 *306:23 3.60792e-05
9 *527:A2 *308:25 1.64486e-05
10 *527:A2 *325:21 0
11 *290:7 zero 9.72385e-05
12 result[6] *290:7 8.48809e-07
13 *523:A1 *527:A2 3.09411e-06
14 *567:A2 *527:A2 4.35247e-05
15 *567:A2 *290:7 8.7996e-05
16 *572:D *527:A2 2.52965e-06
17 *580:D *527:A2 3.93453e-05
18 *582:D *527:A2 1.71452e-05
19 *583:D *527:A2 4.05691e-05
20 *188:22 *290:7 5.75004e-07
21 *234:100 *527:A2 0
22 *234:104 *527:A2 0
*RES
1 rs1[0] *290:7 18.9107 
2 *290:7 *527:A2 37.25 
*END

*D_NET *291 0.00136143
*CONN
*P rs1[1] I
*I *526:A2 I *D AND2_X1
*CAP
1 rs1[1] 3.49091e-05
2 *526:A2 0
3 *291:13 0.00029353
4 *291:7 0.000328439
5 *291:7 *297:15 5.81138e-05
6 *291:13 *292:15 0.000221963
7 *291:13 *307:9 0.000312737
8 *535:A2 *291:7 5.81138e-05
9 *573:D *291:13 0
10 *234:58 *291:13 4.72442e-05
11 *234:64 *291:13 6.37548e-06
*RES
1 rs1[1] *291:7 12.8036 
2 *291:7 *291:13 49.0357 
3 *291:13 *526:A2 10 
*END

*D_NET *292 0.000723071
*CONN
*P rs1[2] I
*I *525:A2 I *D AND2_X1
*CAP
1 rs1[2] 0.000224053
2 *525:A2 0
3 *292:15 0.000224053
4 *292:15 zero 5.30018e-05
5 *291:13 *292:15 0.000221963
*RES
1 rs1[2] *292:15 45.3393 
2 *292:15 *525:A2 5 
*END

*D_NET *293 0.00151471
*CONN
*P rs1[3] I
*I *524:A2 I *D AND2_X1
*CAP
1 rs1[3] 0.00024472
2 *524:A2 0.000279635
3 *293:11 0.000524355
4 *524:A2 *306:23 1.43715e-05
5 *524:A2 *309:21 6.15703e-05
6 *524:A2 *322:30 0
7 *524:A2 *326:42 0
8 *524:A2 *326:46 0
9 *293:11 *521:A2 1.63187e-05
10 *293:11 *566:A2 7.65935e-05
11 *293:11 *594:CK 0
12 *293:11 *309:21 1.48772e-05
13 *293:11 *312:13 2.60904e-05
14 *293:11 *322:45 0
15 *293:11 *324:71 2.67512e-06
16 *293:11 *327:85 4.92863e-06
17 negative *293:11 5.44445e-05
18 overflow *293:11 2.27743e-05
19 result[1] *524:A2 3.40167e-05
20 result[5] *293:11 1.78252e-06
21 result[7] *293:11 0.000130073
22 *492:A2 *293:11 0
23 *523:A1 *524:A2 0
24 *574:D *524:A2 0
25 *584:D *524:A2 5.47944e-06
26 *594:D *293:11 0
27 *596:D *524:A2 0
28 *596:D *293:11 0
29 *597:D *293:11 0
*RES
1 rs1[3] *293:11 40.1964 
2 *293:11 *524:A2 46.6429 
*END

*D_NET *294 0.000806109
*CONN
*P rs1[4] I
*I *523:A2 I *D AND2_X1
*CAP
1 rs1[4] 0.000194507
2 *523:A2 0.000194507
3 *523:A2 *504:A1 2.30003e-05
4 *523:A2 *591:CK 1.74833e-05
5 *523:A2 *306:15 9.06038e-05
6 *523:A2 *306:23 9.86756e-05
7 *523:A2 *309:21 2.30024e-06
8 *523:A2 *326:20 1.045e-05
9 *523:A1 *523:A2 2.39679e-06
10 *527:A2 *523:A2 1.48807e-05
11 *188:22 *523:A2 1.83411e-06
12 *278:22 *523:A2 4.28905e-05
13 *279:14 *523:A2 0.000112579
*RES
1 rs1[4] *523:A2 41.6964 
*END

*D_NET *295 0.00100084
*CONN
*P rs1[5] I
*I *522:A2 I *D AND2_X1
*CAP
1 rs1[5] 0.000172676
2 *522:A2 0.000172676
3 *522:A2 *565:A2 9.2812e-05
4 *522:A2 *566:A2 3.23723e-07
5 *522:A2 *588:CK 3.38384e-05
6 *522:A2 *592:CK 8.0025e-05
7 *522:A2 *607:A 1.50966e-05
8 *522:A2 *327:6 3.93465e-06
9 *522:A2 *327:45 2.71691e-06
10 *522:A2 *327:72 1.25215e-05
11 overflow *522:A2 0.000180594
12 result[2] *522:A2 0.000105302
13 *556:B *522:A2 3.33059e-05
14 *218:43 *522:A2 7.16735e-05
15 *221:18 *522:A2 1.579e-05
16 *234:29 *522:A2 2.39679e-06
17 *278:22 *522:A2 5.15774e-06
*RES
1 rs1[5] *522:A2 43.8393 
*END

*D_NET *296 0.000989882
*CONN
*P rs1[6] I
*I *521:A2 I *D AND2_X1
*CAP
1 rs1[6] 0.000211586
2 *521:A2 0.000211586
3 *521:A2 *565:A2 6.20144e-05
4 *521:A2 *566:A2 7.65935e-05
5 *521:A2 *297:15 2.77965e-05
6 *521:A2 *309:15 7.71294e-05
7 *521:A2 *309:21 1.68643e-06
8 *521:A2 *324:71 3.20737e-05
9 *521:A2 *327:85 2.89018e-05
10 result[7] *521:A2 9.46569e-06
11 *569:D *521:A2 7.19036e-06
12 *278:14 *521:A2 0.000142728
13 *278:22 *521:A2 8.48109e-05
14 *293:11 *521:A2 1.63187e-05
*RES
1 rs1[6] *521:A2 47.875 
*END

*D_NET *297 0.00146079
*CONN
*P rs1[7] I
*I *565:A2 I *D AND2_X1
*CAP
1 rs1[7] 0.000195215
2 *565:A2 0.000119041
3 *297:15 0.000314256
4 *565:A2 *590:CK 2.79981e-06
5 *297:15 *308:25 1.2752e-06
6 *297:15 *309:15 4.11048e-05
7 *297:15 *309:21 0.000141831
8 negative *297:15 7.95139e-05
9 result[0] *297:15 0
10 *521:A2 *565:A2 6.20144e-05
11 *521:A2 *297:15 2.77965e-05
12 *522:A2 *565:A2 9.2812e-05
13 *535:A2 *297:15 7.18184e-06
14 *570:D *297:15 0.000118827
15 *221:18 *297:15 4.16464e-05
16 *234:29 *565:A2 5.20563e-05
17 *278:14 *565:A2 0
18 *278:22 *565:A2 5.99463e-05
19 *278:22 *297:15 4.53624e-05
20 *291:7 *297:15 5.81138e-05
*RES
1 rs1[7] *297:15 48.3393 
2 *297:15 *565:A2 25.8572 
*END

*D_NET *298 0.00225005
*CONN
*I *417:A1 I *D NAND3_X1
*I *371:A1 I *D AND2_X1
*I *416:A1 I *D NAND2_X1
*I *512:A1 I *D OAI22_X1
*I *372:A1 I *D NAND2_X1
*I *514:A I *D XNOR2_X1
*I *342:A1 I *D NOR2_X1
*I *580:Q O *D DFF_X1
*CAP
1 *417:A1 7.4352e-05
2 *371:A1 8.71307e-06
3 *416:A1 0
4 *512:A1 2.36963e-05
5 *372:A1 1.15816e-05
6 *514:A 8.4093e-06
7 *342:A1 2.99727e-05
8 *580:Q 0.000182827
9 *298:58 5.33096e-05
10 *298:52 0.000168176
11 *298:41 0.000147929
12 *298:30 0.000157725
13 *298:19 9.35416e-05
14 *298:8 0.000226794
15 *372:A1 *373:A1 1.39839e-06
16 *372:A1 *299:70 1.27536e-06
17 *417:A1 *331:A 4.25917e-06
18 *417:A1 *417:A2 2.75346e-06
19 *417:A1 *314:31 3.13574e-06
20 *417:A1 *314:35 3.23723e-07
21 *512:A1 *512:A2 4.97191e-06
22 *512:A1 *314:27 3.45517e-05
23 *298:8 *572:CK 4.30657e-05
24 *298:8 *299:23 1.36926e-05
25 *298:8 *299:40 3.18275e-05
26 *298:8 *314:12 5.51848e-05
27 *298:8 *315:14 1.51249e-05
28 *298:19 *299:40 1.19024e-05
29 *298:19 *314:12 5.14369e-05
30 *298:30 *299:40 3.43412e-05
31 *298:30 *299:53 9.30875e-05
32 *298:30 *314:12 0.000159586
33 *298:30 *314:27 7.14654e-06
34 *298:30 *315:25 9.22959e-05
35 *298:30 *315:40 6.26024e-05
36 *298:41 *314:27 2.71922e-05
37 *298:41 *315:40 6.84316e-05
38 *298:52 *314:27 2.3767e-06
39 *298:52 *314:31 4.36589e-06
40 *298:58 *314:27 0
41 *298:58 *314:35 9.62051e-07
42 *342:A2 *342:A1 5.34233e-06
43 *375:A *298:30 4.80119e-06
44 *416:A2 *298:58 2.75346e-06
45 *480:A *342:A1 2.39679e-06
46 *480:B2 *342:A1 8.43215e-07
47 *511:A2 *372:A1 5.52692e-06
48 *511:A2 *298:41 4.2108e-05
49 *512:B1 *512:A1 1.21774e-06
50 *512:B2 *512:A1 8.28337e-06
51 *515:A *298:41 0
52 *515:B1 *342:A1 0
53 *515:B1 *298:41 7.54346e-07
54 *515:B2 *298:41 4.52612e-06
55 *516:A2 *298:41 1.18264e-05
56 *516:A2 *298:52 4.17885e-06
57 *572:D *298:8 0
58 *2:8 *298:8 1.02238e-05
59 *3:10 *298:8 0.000107413
60 *241:6 *342:A1 2.35379e-05
*RES
1 *580:Q *298:8 36.0357 
2 *298:8 *342:A1 13.75 
3 *298:8 *298:19 2.96429 
4 *298:19 *514:A 10.75 
5 *298:19 *298:30 16.5357 
6 *298:30 *372:A1 11.25 
7 *298:30 *298:41 12.4643 
8 *298:41 *512:A1 13.75 
9 *298:41 *298:52 5.67857 
10 *298:52 *298:58 9.67857 
11 *298:58 *416:A1 5 
12 *298:58 *371:A1 5.92857 
13 *298:52 *417:A1 19.4286 
*END

*D_NET *299 0.00310133
*CONN
*I *415:B2 I *D AOI21_X1
*I *427:A1 I *D NAND2_X1
*I *428:B2 I *D AOI21_X1
*I *517:B2 I *D AOI21_X1
*I *369:A1 I *D AND2_X1
*I *373:A1 I *D NOR2_X1
*I *370:A1 I *D NAND2_X1
*I *341:A1 I *D NAND2_X1
*I *343:A I *D XNOR2_X1
*I *581:Q O *D DFF_X1
*CAP
1 *415:B2 2.21855e-05
2 *427:A1 4.60994e-05
3 *428:B2 0
4 *517:B2 4.69352e-05
5 *369:A1 8.88911e-06
6 *373:A1 6.17802e-06
7 *370:A1 5.37304e-06
8 *341:A1 2.07676e-05
9 *343:A 1.65461e-05
10 *581:Q 5.40026e-05
11 *299:109 0.000103902
12 *299:96 7.65994e-05
13 *299:81 0.000125837
14 *299:70 0.000157028
15 *299:53 0.000135609
16 *299:40 0.000169962
17 *299:23 0.000260519
18 *299:10 0.000164921
19 *343:A *601:A 0
20 *369:A1 *369:A2 5.33113e-06
21 *369:A1 *315:61 7.19036e-06
22 *370:A1 *315:25 3.09143e-06
23 *373:A1 *373:A2 3.09143e-06
24 *415:B2 *415:B1 9.6515e-06
25 *415:B2 *315:107 2.83289e-05
26 *427:A1 *314:70 2.26306e-06
27 *517:B2 *517:B1 1.02133e-05
28 *517:B2 *315:78 1.43238e-06
29 *517:B2 *316:53 0
30 *299:10 *325:8 1.62377e-05
31 *299:23 *601:A 0
32 *299:23 *324:27 0
33 *299:40 *315:25 1.41361e-05
34 *299:53 *314:12 1.53357e-05
35 *299:70 *373:A2 1.9025e-06
36 *299:70 *485:B1 6.48216e-07
37 *299:70 *315:53 7.93012e-05
38 *299:70 *316:30 4.26902e-05
39 *299:70 *316:53 0.000129451
40 *299:81 *315:53 1.66988e-05
41 *299:81 *316:53 0.000164187
42 *299:96 *315:70 1.26998e-05
43 *299:96 *316:53 6.44316e-05
44 *299:109 *314:46 7.12186e-06
45 *299:109 *314:59 4.43868e-06
46 *299:109 *315:70 1.82068e-05
47 *299:109 *315:78 1.66988e-05
48 *299:109 *315:107 5.01473e-05
49 *341:A2 *341:A1 4.29713e-06
50 *341:A2 *299:23 8.2465e-06
51 *343:B *343:A 8.43215e-07
52 *343:B *299:23 8.2465e-06
53 *344:A *341:A1 7.72792e-06
54 *344:A *343:A 2.23415e-06
55 *372:A1 *373:A1 1.39839e-06
56 *372:A1 *299:70 1.27536e-06
57 *375:A *299:53 5.46453e-05
58 *375:B1 *299:70 2.70833e-06
59 *375:B2 *370:A1 7.19036e-06
60 *375:B2 *299:40 2.2287e-05
61 *401:A *517:B2 1.63988e-05
62 *416:A2 *299:96 1.86937e-06
63 *418:A *415:B2 2.16072e-07
64 *418:A *427:A1 2.9331e-06
65 *428:A *299:96 4.12796e-06
66 *428:A *299:109 4.16195e-06
67 *494:C1 *299:81 1.3143e-06
68 *511:A2 *299:70 1.40523e-05
69 *512:B1 *517:B2 6.65423e-06
70 *512:B1 *299:81 8.06346e-05
71 *515:B1 *299:40 0
72 *515:B2 *299:40 0.000124407
73 *515:C2 *369:A1 4.78054e-06
74 *519:A *517:B2 4.32144e-07
75 *572:D *299:10 3.27287e-05
76 *572:D *299:23 3.40142e-05
77 *61:8 *299:96 1.26998e-05
78 *61:10 *299:81 9.55059e-06
79 *61:10 *299:96 3.43549e-05
80 *61:16 *299:81 1.33704e-05
81 *63:8 *299:70 2.13105e-05
82 *63:31 *299:70 0.000107951
83 *230:10 *427:A1 7.72537e-06
84 *230:16 *299:109 1.48912e-05
85 *230:22 *299:96 1.91667e-07
86 *230:49 *427:A1 5.56848e-05
87 *230:49 *299:109 5.64879e-06
88 *230:64 *415:B2 0
89 *230:64 *427:A1 1.27467e-05
90 *242:8 *343:A 0
91 *243:6 *341:A1 2.42487e-05
92 *298:8 *299:23 1.36926e-05
93 *298:8 *299:40 3.18275e-05
94 *298:19 *299:40 1.19024e-05
95 *298:30 *299:40 3.43412e-05
96 *298:30 *299:53 9.30875e-05
*RES
1 *581:Q *299:10 22.7143 
2 *299:10 *343:A 6.75 
3 *299:10 *299:23 15.8929 
4 *299:23 *341:A1 13.1786 
5 *299:23 *299:40 27.8572 
6 *299:40 *370:A1 5.75 
7 *299:40 *299:53 15 
8 *299:53 *373:A1 5.75 
9 *299:53 *299:70 24 
10 *299:70 *369:A1 11.25 
11 *299:70 *299:81 9.07143 
12 *299:81 *517:B2 15.75 
13 *299:81 *299:96 11.9286 
14 *299:96 *428:B2 5 
15 *299:96 *299:109 16.0714 
16 *299:109 *427:A1 21.0714 
17 *299:109 *415:B2 8.25 
*END

*D_NET *300 0.002801
*CONN
*I *414:A1 I *D AND2_X1
*I *433:B I *D MUX2_X1
*I *432:A1 I *D NAND2_X1
*I *485:B2 I *D OAI21_X1
*I *368:A1 I *D AND2_X1
*I *376:A I *D XOR2_X1
*I *345:A I *D XOR2_X1
*I *340:A1 I *D AND2_X1
*I *582:Q O *D DFF_X1
*CAP
1 *414:A1 3.95912e-06
2 *433:B 1.13111e-05
3 *432:A1 3.02074e-05
4 *485:B2 3.31724e-05
5 *368:A1 2.06537e-05
6 *376:A 2.44218e-05
7 *345:A 5.41455e-05
8 *340:A1 1.52792e-05
9 *582:Q 8.27772e-05
10 *300:79 8.53159e-05
11 *300:75 0.000257087
12 *300:60 0.000318537
13 *300:47 0.000154956
14 *300:36 0.000225209
15 *300:21 0.000219239
16 *300:10 0.000120632
17 *340:A1 *324:27 3.83453e-06
18 *345:A *324:27 0
19 *368:A1 *368:A2 2.39679e-06
20 *414:A1 *415:B1 2.43548e-06
21 *432:A1 *432:A2 2.43548e-06
22 *485:B2 *485:B1 8.43215e-07
23 *300:10 *301:10 6.04169e-05
24 *300:10 *324:27 0
25 *300:21 *301:10 7.18184e-06
26 *300:21 *316:8 0
27 *300:36 *301:23 9.05228e-06
28 *300:36 *316:8 0
29 *300:75 *415:B1 5.52959e-06
30 *300:75 *517:B1 5.41015e-05
31 *300:75 *314:59 0.000129699
32 *300:75 *314:70 3.02372e-05
33 *300:79 *314:70 3.691e-06
34 *340:A2 *340:A1 2.37137e-05
35 *340:A2 *345:A 1.28334e-05
36 *345:B *345:A 1.51122e-05
37 *346:A *300:36 1.61002e-06
38 *347:B2 *345:A 3.28568e-05
39 *377:B2 *376:A 0
40 *378:B *368:A1 1.03048e-06
41 *378:C1 *368:A1 8.08864e-06
42 *378:C1 *376:A 0
43 *378:C1 *300:47 4.11048e-05
44 *378:C1 *300:60 1.2203e-05
45 *378:C2 *368:A1 1.74934e-05
46 *415:A *300:75 2.72171e-06
47 *415:A *300:79 2.94455e-05
48 *429:A2 *300:75 1.39834e-05
49 *462:A *300:36 4.24402e-05
50 *464:A *376:A 0
51 *464:A *300:47 1.23214e-06
52 *464:A *300:60 7.11905e-07
53 *472:B1 *300:75 1.51752e-06
54 *479:B1 *300:36 1.30494e-05
55 *479:B1 *300:47 5.10087e-06
56 *485:A *485:B2 1.86809e-06
57 *486:A2 *485:B2 0
58 *486:A2 *300:60 6.78899e-05
59 *486:A2 *300:75 4.62071e-05
60 *486:B2 *300:60 7.47756e-06
61 *487:A1 *485:B2 3.19164e-07
62 *487:A2 *485:B2 7.16188e-07
63 *489:B *300:36 0
64 *490:A *376:A 2.39679e-06
65 *490:A *300:36 5.16272e-06
66 *490:B1 *300:36 2.90163e-06
67 *491:A1 *300:60 8.49614e-06
68 *491:A2 *300:36 0
69 *491:A2 *300:47 0
70 *491:A2 *300:60 0
71 *491:A2 *300:75 0
72 *491:A3 *376:A 9.93293e-06
73 *491:A3 *300:36 0
74 *493:A1 *300:75 2.08098e-06
75 *493:B1 *300:60 5.56778e-06
76 *493:B1 *300:75 9.91248e-06
77 *494:A *300:75 6.81795e-05
78 *494:C2 *300:75 2.56746e-05
79 *499:B *300:75 1.90574e-06
80 *500:B1 *432:A1 0
81 *500:B1 *433:B 4.80378e-06
82 *500:B1 *300:79 3.43575e-05
83 *500:B2 *432:A1 4.00561e-05
84 *500:B2 *433:B 1.83852e-05
85 *500:B2 *300:79 1.66988e-05
86 *502:B1 *300:79 0
87 *513:A2 *300:75 1.26972e-05
88 *574:D *300:10 1.21491e-05
89 *58:10 *368:A1 5.62375e-06
90 *61:10 *300:75 2.43266e-06
91 *65:38 *368:A1 1.21774e-06
92 *66:20 *376:A 2.52965e-06
93 *66:33 *300:47 1.19024e-05
94 *66:44 *300:47 2.08098e-06
95 *90:30 *485:B2 6.46697e-06
96 *90:43 *300:75 3.05953e-05
97 *105:10 *300:75 6.22012e-06
98 *230:64 *414:A1 7.19036e-06
99 *230:64 *300:75 1.26998e-05
100 *239:8 *300:21 7.66675e-07
101 *239:8 *300:36 7.65279e-06
102 *243:6 *345:A 0
103 *243:19 *300:36 1.0968e-05
104 *244:6 *345:A 3.50842e-05
105 *244:19 *345:A 6.72466e-06
*RES
1 *582:Q *300:10 21.5 
2 *300:10 *340:A1 12.25 
3 *300:10 *300:21 2.28572 
4 *300:21 *345:A 18.9286 
5 *300:21 *300:36 16.5357 
6 *300:36 *376:A 12.75 
7 *300:36 *300:47 7.03572 
8 *300:47 *368:A1 12.75 
9 *300:47 *300:60 9.82143 
10 *300:60 *485:B2 13.25 
11 *300:60 *300:75 35.6786 
12 *300:75 *300:79 11.3571 
13 *300:79 *432:A1 14.25 
14 *300:79 *433:B 11.6786 
15 *300:75 *414:A1 5.75 
*END

*D_NET *301 0.00319934
*CONN
*I *339:A1 I *D NOR2_X1
*I *406:B I *D MUX2_X1
*I *465:A I *D MUX2_X1
*I *433:A I *D MUX2_X1
*I *482:B2 I *D AOI21_X1
*I *366:A1 I *D AND2_X1
*I *367:A1 I *D NOR2_X1
*I *461:A I *D XOR2_X1
*I *347:C2 I *D AOI221_X1
*I *583:Q O *D DFF_X1
*CAP
1 *339:A1 3.39363e-05
2 *406:B 0
3 *465:A 1.15695e-05
4 *433:A 4.12707e-05
5 *482:B2 4.07596e-06
6 *366:A1 0
7 *367:A1 8.71307e-06
8 *461:A 0
9 *347:C2 0
10 *583:Q 0.000205753
11 *301:78 5.72411e-05
12 *301:67 0.000117401
13 *301:54 0.000306074
14 *301:40 1.78869e-05
15 *301:36 0.000355942
16 *301:32 0.000138657
17 *301:23 7.15384e-05
18 *301:10 0.0002478
19 *433:A *500:A 0
20 *433:A *314:74 2.14856e-06
21 *433:A *314:76 1.18572e-05
22 *465:A *465:B 5.51848e-05
23 *465:A *315:150 1.02238e-05
24 *301:10 *574:CK 0
25 *301:10 *582:CK 0
26 *301:10 *306:23 0
27 *301:36 *366:A2 3.84423e-05
28 *301:36 *317:8 0.000183804
29 *301:54 *366:A2 1.72426e-05
30 *301:67 *482:B1 4.24402e-05
31 *301:67 *315:137 0
32 *301:78 *501:B2 4.07669e-05
33 *301:78 *314:76 4.32144e-07
34 *301:78 *314:89 9.89426e-06
35 *301:78 *314:97 2.39679e-06
36 *339:A2 *339:A1 1.7707e-05
37 *346:A *301:10 1.72426e-05
38 *346:A *301:23 1.2453e-05
39 *456:A2 *465:A 2.94435e-05
40 *461:B *339:A1 5.24655e-06
41 *461:B *301:32 4.68088e-05
42 *462:A *301:23 6.50283e-06
43 *462:A *301:32 7.16188e-07
44 *462:B *301:32 3.30415e-05
45 *472:B1 *482:B2 7.72792e-06
46 *484:A *301:78 0
47 *491:A2 *301:36 5.16528e-06
48 *491:A2 *301:54 2.04094e-05
49 *500:B2 *433:A 2.75346e-06
50 *501:A *433:A 8.61743e-06
51 *501:A *301:78 3.23723e-07
52 *501:B1 *301:78 3.93732e-06
53 *502:A1 *301:54 1.84823e-05
54 *502:B1 *301:54 0.000331834
55 *502:B1 *301:67 0.000101047
56 *502:B2 *301:54 8.15113e-06
57 *503:A4 *301:54 9.33792e-05
58 *518:A *301:54 2.62321e-05
59 *518:C1 *301:54 3.10688e-05
60 *518:C1 *301:67 4.46014e-06
61 *519:B *301:54 1.32192e-05
62 *574:D *301:10 0
63 *46:26 *339:A1 2.42644e-05
64 *46:26 *301:23 1.40196e-06
65 *46:26 *301:32 4.29713e-06
66 *56:8 *301:54 7.98387e-05
67 *56:21 *301:54 6.39357e-05
68 *57:8 *301:54 8.34049e-06
69 *86:42 *301:54 0
70 *99:39 *301:54 1.2576e-05
71 *118:12 *301:54 0
72 *164:22 *367:A1 0
73 *230:97 *482:B2 7.72792e-06
74 *238:10 *301:32 0
75 *239:8 *301:10 4.16464e-05
76 *300:10 *301:10 6.04169e-05
77 *300:21 *301:10 7.18184e-06
78 *300:36 *301:23 9.05228e-06
*RES
1 *583:Q *301:10 33.9286 
2 *301:10 *347:C2 10 
3 *301:10 *301:23 10.0714 
4 *301:23 *461:A 5 
5 *301:23 *301:32 5.67857 
6 *301:32 *301:36 16.7857 
7 *301:36 *301:40 5.75 
8 *301:40 *367:A1 5.92857 
9 *301:40 *366:A1 5 
10 *301:36 *301:54 41.6429 
11 *301:54 *482:B2 10.75 
12 *301:54 *301:67 10.6786 
13 *301:67 *433:A 10.25 
14 *301:67 *301:78 6.17857 
15 *301:78 *465:A 17.9643 
16 *301:78 *406:B 5 
17 *301:32 *339:A1 10.25 
*END

*D_NET *302 0.00414313
*CONN
*I *435:B I *D MUX2_X1
*I *454:A I *D MUX2_X1
*I *465:B I *D MUX2_X1
*I *406:A I *D MUX2_X1
*I *364:A1 I *D NOR2_X1
*I *363:A1 I *D NAND2_X1
*I *365:A I *D XNOR2_X1
*I *337:A1 I *D NAND2_X1
*I *338:A I *D XNOR2_X1
*I *584:Q O *D DFF_X1
*CAP
1 *435:B 0.000144865
2 *454:A 0
3 *465:B 4.24998e-05
4 *406:A 5.96807e-06
5 *364:A1 0
6 *363:A1 3.10086e-05
7 *365:A 1.60034e-05
8 *337:A1 9.09798e-05
9 *338:A 0
10 *584:Q 0.000103711
11 *302:109 0.000173717
12 *302:83 0.000136809
13 *302:71 0.000326191
14 *302:55 5.47485e-05
15 *302:47 0.000267951
16 *302:36 0.00012665
17 *302:25 0.00024345
18 *302:12 0.000180748
19 *363:A1 *363:A2 5.10699e-05
20 *406:A *314:89 2.39679e-06
21 *406:A *314:97 7.19036e-06
22 *435:B *405:B1 4.73094e-05
23 *435:B *454:B 1.24517e-05
24 *435:B *303:88 3.13905e-05
25 *435:B *314:138 3.57949e-05
26 *435:B *315:202 2.77917e-07
27 *465:B *465:S 6.70962e-05
28 *465:B *314:97 1.66988e-05
29 *465:B *315:150 8.1183e-06
30 *465:B *315:169 7.72537e-06
31 *302:25 *318:8 1.88334e-06
32 *302:36 *318:8 5.45424e-05
33 *302:47 *318:8 4.80378e-06
34 *302:47 *318:21 4.42732e-05
35 *302:55 *363:A2 3.10376e-06
36 *302:55 *318:21 8.75853e-06
37 *302:71 *314:132 1.52083e-06
38 *302:83 *483:B1 3.28657e-05
39 *302:83 *314:97 9.80889e-06
40 *302:83 *314:132 2.53661e-05
41 *302:83 *315:280 3.55452e-05
42 *302:109 *454:B 2.16072e-07
43 *302:109 *314:132 4.75692e-05
44 *333:A *302:55 0
45 *337:A2 *337:A1 6.26794e-05
46 *337:A2 *302:25 2.07819e-05
47 *338:B *302:12 5.05929e-06
48 *338:B *302:25 4.66089e-05
49 *411:A *435:B 1.03979e-05
50 *411:B1 *435:B 2.07867e-05
51 *419:B *435:B 5.1381e-06
52 *446:A *302:12 2.52965e-06
53 *446:A *302:25 4.32144e-07
54 *446:B2 *302:12 0
55 *453:B *302:71 7.61122e-06
56 *453:C2 *302:71 0.000117243
57 *455:B *302:71 0
58 *456:A2 *465:B 7.35912e-06
59 *456:A2 *302:83 2.76824e-06
60 *457:B *302:83 3.49085e-06
61 *458:A *302:71 4.04789e-05
62 *458:C1 *302:71 8.1183e-06
63 *458:C2 *302:71 3.86218e-05
64 *460:A2 *302:25 0
65 *460:A2 *302:36 0
66 *465:A *465:B 5.51848e-05
67 *467:B2 *435:B 1.68643e-06
68 *470:B *435:B 6.57148e-07
69 *472:A *302:71 5.56936e-06
70 *472:A *302:109 2.72417e-06
71 *474:A3 *365:A 2.90423e-05
72 *483:B2 *302:109 5.11118e-06
73 *484:B1 *406:A 0
74 *484:B1 *302:83 1.51004e-05
75 *488:B2 *302:83 0
76 *492:A2 *302:25 7.47756e-06
77 *519:C2 *302:71 5.47625e-06
78 *547:A *435:B 2.39679e-06
79 *576:D *302:25 0
80 *46:16 *302:36 7.64942e-06
81 *46:26 *302:12 0
82 *53:6 *363:A1 3.526e-05
83 *53:6 *302:55 2.39679e-06
84 *53:15 *363:A1 0
85 *53:15 *302:55 3.68327e-06
86 *53:32 *302:55 2.11458e-06
87 *69:34 *302:55 8.43215e-07
88 *76:65 *365:A 1.2087e-05
89 *76:65 *302:55 0
90 *77:38 *302:71 2.77175e-05
91 *86:28 *363:A1 8.32672e-06
92 *92:24 *302:47 2.08098e-06
93 *92:24 *302:71 1.3143e-06
94 *97:31 *302:71 9.21055e-05
95 *122:8 *465:B 7.72537e-06
96 *129:35 *302:71 2.08635e-05
97 *143:12 *302:71 4.58352e-05
98 *146:14 *302:36 8.00908e-05
99 *146:14 *302:47 0.000145068
100 *146:14 *302:71 0.000279539
101 *147:10 *302:36 6.76399e-05
102 *152:8 *465:B 1.01993e-05
103 *159:10 *302:71 1.11357e-05
104 *188:22 *302:12 9.69074e-06
105 *229:43 *435:B 0
106 *229:76 *302:71 2.99187e-06
107 *230:97 *302:83 0.000103341
108 *230:97 *302:109 1.90208e-06
109 *238:10 *302:12 6.06412e-06
110 *246:8 *302:12 0
111 *247:20 *337:A1 3.64709e-05
112 *277:10 *302:12 6.73568e-05
113 *285:8 *337:A1 1.80259e-05
*RES
1 *584:Q *302:12 28.8214 
2 *302:12 *338:A 5 
3 *302:12 *302:25 14.4643 
4 *302:25 *337:A1 23.75 
5 *302:25 *302:36 11.7857 
6 *302:36 *365:A 12.75 
7 *302:36 *302:47 7.71429 
8 *302:47 *302:55 8.42857 
9 *302:55 *363:A1 10.6786 
10 *302:55 *364:A1 5 
11 *302:47 *302:71 34.8572 
12 *302:71 *302:83 29.9643 
13 *302:83 *406:A 5.75 
14 *302:83 *465:B 22.7857 
15 *302:71 *302:109 9.67857 
16 *302:109 *454:A 5 
17 *302:109 *435:B 35.2143 
*END

*D_NET *303 0.00334731
*CONN
*I *336:A1 I *D AND2_X1
*I *350:A I *D XOR2_X1
*I *437:A I *D MUX2_X1
*I *405:B2 I *D AOI21_X1
*I *454:B I *D MUX2_X1
*I *435:A I *D MUX2_X1
*I *431:B2 I *D OAI21_X1
*I *380:A I *D XOR2_X1
*I *362:A1 I *D AND2_X1
*I *585:Q O *D DFF_X1
*CAP
1 *336:A1 2.02038e-05
2 *350:A 0
3 *437:A 2.58005e-05
4 *405:B2 0
5 *454:B 7.49395e-05
6 *435:A 0
7 *431:B2 2.78441e-05
8 *380:A 0
9 *362:A1 6.71883e-05
10 *585:Q 5.68675e-05
11 *303:88 0.000109726
12 *303:79 0.00012945
13 *303:69 0.000234151
14 *303:56 0.000242326
15 *303:43 0.000118349
16 *303:28 0.000238981
17 *303:20 0.00020149
18 *303:12 0.000124323
19 *336:A1 *328:20 0
20 *362:A1 *362:A2 0
21 *362:A1 *319:8 0
22 *362:A1 *319:19 0
23 *437:A *545:A 0
24 *437:A *314:146 0
25 *454:B *315:186 1.52842e-06
26 *303:12 *577:CK 7.14239e-06
27 *303:12 *322:128 1.32323e-05
28 *303:12 *324:93 5.06772e-05
29 *303:12 *328:20 0
30 *303:12 *328:35 1.04893e-05
31 *303:20 *319:8 4.43868e-06
32 *303:20 *324:93 0
33 *303:20 *328:20 0
34 *303:20 *328:35 2.38892e-05
35 *303:28 *319:8 0.00047265
36 *303:28 *328:35 1.61446e-06
37 *303:43 *380:B 7.19036e-06
38 *303:69 *304:69 8.93174e-06
39 *303:69 *304:78 1.97744e-05
40 *303:79 *314:146 0
41 *336:A2 *336:A1 9.65418e-06
42 *336:A2 *303:20 1.1431e-05
43 *336:A2 *303:28 2.52965e-06
44 *350:B *303:20 1.72426e-05
45 *403:A2 *431:B2 9.01846e-07
46 *404:A *431:B2 2.90423e-05
47 *410:B1 *454:B 7.38152e-06
48 *411:A *454:B 4.64525e-05
49 *411:B2 *437:A 1.04584e-06
50 *411:B2 *303:79 1.57397e-05
51 *411:B2 *303:88 1.0537e-05
52 *421:A2 *303:28 7.47756e-06
53 *425:A2 *303:28 1.57736e-05
54 *435:B *454:B 1.24517e-05
55 *435:B *303:88 3.13905e-05
56 *439:A2 *303:69 0.000146395
57 *440:B1 *303:79 1.35364e-05
58 *442:B1 *303:56 0
59 *443:A3 *431:B2 3.93732e-06
60 *483:B2 *454:B 2.39679e-06
61 *540:A1 *303:56 2.96901e-05
62 *540:A1 *303:69 4.36e-05
63 *546:A1 *303:69 2.84765e-06
64 *546:A1 *303:79 0
65 *547:A *303:79 7.77781e-06
66 *547:A *303:88 2.75346e-06
67 *547:C1 *303:79 1.48917e-05
68 *547:C2 *303:79 1.19839e-05
69 *549:A2 *303:69 4.025e-07
70 *550:C1 *303:56 4.6613e-07
71 *7:10 *303:20 3.25349e-05
72 *42:10 *303:28 1.83411e-06
73 *72:27 *303:56 2.28245e-05
74 *76:84 *303:56 5.56848e-05
75 *77:44 *431:B2 0
76 *77:44 *303:56 0.000143487
77 *78:24 *362:A1 2.37137e-05
78 *78:24 *303:43 1.91743e-05
79 *78:24 *303:56 4.12459e-06
80 *78:26 *303:28 2.09875e-05
81 *90:76 *362:A1 1.17263e-05
82 *92:85 *303:56 0
83 *109:10 *362:A1 0
84 *126:14 *303:79 2.14856e-06
85 *128:19 *303:69 3.22985e-05
86 *133:14 *303:28 5.21932e-05
87 *216:16 *303:56 3.48474e-05
88 *216:16 *303:69 3.82123e-05
89 *229:43 *454:B 4.0876e-05
90 *229:51 *454:B 1.74934e-05
91 *302:109 *454:B 2.16072e-07
*RES
1 *585:Q *303:12 23.2857 
2 *303:12 *303:20 16.2143 
3 *303:20 *303:28 37.1072 
4 *303:28 *362:A1 23.0714 
5 *303:28 *303:43 2.25 
6 *303:43 *380:A 5 
7 *303:43 *303:56 21.4643 
8 *303:56 *431:B2 13.5 
9 *303:56 *303:69 24.25 
10 *303:69 *303:79 12.2857 
11 *303:79 *435:A 5 
12 *303:79 *303:88 5.67857 
13 *303:88 *454:B 17.2857 
14 *303:88 *405:B2 5 
15 *303:69 *437:A 7.85714 
16 *303:20 *350:A 5 
17 *303:12 *336:A1 7.25 
*END

*D_NET *304 0.00278885
*CONN
*I *354:A I *D XOR2_X1
*I *390:A I *D MUX2_X1
*I *545:B2 I *D AOI21_X1
*I *437:B I *D MUX2_X1
*I *389:A1 I *D NAND2_X1
*I *359:A1 I *D NAND2_X1
*I *360:A1 I *D OR2_X1
*I *353:A1 I *D NAND2_X1
*I *586:Q O *D DFF_X1
*CAP
1 *354:A 0
2 *390:A 0
3 *545:B2 1.00111e-05
4 *437:B 0
5 *389:A1 0
6 *359:A1 9.43531e-06
7 *360:A1 2.72261e-05
8 *353:A1 0
9 *586:Q 5.79636e-05
10 *304:78 2.47044e-05
11 *304:69 3.80595e-05
12 *304:65 0.00010813
13 *304:50 0.000151906
14 *304:37 0.000289263
15 *304:29 0.000270761
16 *304:8 0.000124395
17 *359:A1 *359:A2 5.52959e-06
18 *359:A1 *305:81 2.23871e-06
19 *360:A1 *360:A2 4.02344e-05
20 *545:B2 *545:B1 4.37715e-05
21 *304:8 *305:8 0
22 *304:8 *328:8 1.72426e-05
23 *304:8 *328:14 5.48932e-05
24 *304:29 *604:A 2.16827e-06
25 *304:29 *305:8 0
26 *304:29 *324:95 1.76008e-05
27 *304:29 *328:8 3.84423e-05
28 *304:37 *320:8 0.000653
29 *304:37 *324:95 9.6515e-06
30 *304:50 *359:A2 9.07104e-05
31 *304:50 *360:A2 7.19036e-06
32 *304:50 *320:8 1.66988e-05
33 *304:65 *390:B 1.08036e-06
34 *304:65 *439:A1 5.52692e-06
35 *304:65 *305:81 1.71452e-05
36 *304:69 *390:S 0.000106082
37 *304:69 *314:157 1.27467e-05
38 *304:78 *545:B1 5.1189e-05
39 *304:78 *314:157 1.77822e-05
40 *353:A2 *304:29 0
41 *354:B *304:29 6.20856e-05
42 *354:B *304:37 2.39679e-06
43 *361:A1 *304:50 5.11191e-06
44 *404:A *304:50 1.68643e-06
45 *439:A2 *304:65 0
46 *439:A2 *304:69 9.44167e-05
47 *505:A2 *304:29 2.39679e-06
48 *540:A1 *304:37 0
49 *540:A1 *304:50 0
50 *546:A1 *545:B2 3.69236e-06
51 *546:A1 *304:78 2.04312e-06
52 *551:A *304:37 0
53 *551:B *304:37 1.9871e-06
54 *578:D *304:8 0
55 *579:D *304:8 1.44121e-05
56 *43:10 *304:29 6.23163e-05
57 *44:8 *304:37 6.48216e-07
58 *51:8 *304:50 3.20789e-05
59 *52:10 *360:A1 0
60 *52:10 *304:50 0
61 *77:44 *304:37 0
62 *126:14 *545:B2 3.49085e-06
63 *189:30 *304:37 2.55787e-06
64 *207:12 *304:37 1.8791e-05
65 *218:12 *304:37 0.000127248
66 *303:69 *304:69 8.93174e-06
67 *303:69 *304:78 1.97744e-05
*RES
1 *586:Q *304:8 17.7143 
2 *304:8 *353:A1 10 
3 *304:8 *304:29 25.25 
4 *304:29 *304:37 47.1072 
5 *304:37 *360:A1 8.75 
6 *304:37 *304:50 13.2857 
7 *304:50 *359:A1 11.25 
8 *304:50 *304:65 14.0714 
9 *304:65 *304:69 11.3571 
10 *304:69 *389:A1 10 
11 *304:69 *304:78 3.64286 
12 *304:78 *437:B 10 
13 *304:78 *545:B2 12.2857 
14 *304:65 *390:A 5 
15 *304:29 *354:A 5 
*END

*D_NET *305 0.00236097
*CONN
*I *538:A1 I *D AND2_X1
*I *390:B I *D MUX2_X1
*I *439:A1 I *D NAND2_X1
*I *537:A1 I *D OR2_X1
*I *539:A I *D XOR2_X1
*I *508:A I *D XOR2_X1
*I *507:A1 I *D OR2_X1
*I *505:A1 I *D AND2_X1
*I *587:Q O *D DFF_X1
*CAP
1 *538:A1 4.55929e-06
2 *390:B 4.16733e-05
3 *439:A1 8.59683e-06
4 *537:A1 0
5 *539:A 0
6 *508:A 1.00985e-05
7 *507:A1 4.73677e-05
8 *505:A1 2.26939e-05
9 *587:Q 5.86528e-05
10 *305:81 0.000338579
11 *305:68 0.000345061
12 *305:62 7.52651e-05
13 *305:51 0.0001046
14 *305:32 0.00011262
15 *305:19 0.00010342
16 *305:8 0.000125524
17 *390:B *390:S 5.54348e-05
18 *505:A1 *579:CK 1.95807e-05
19 *507:A1 *564:A 5.46152e-05
20 *507:A1 *322:149 0
21 *538:A1 *538:A2 7.72792e-06
22 *305:19 *564:A 2.61812e-06
23 *305:19 *321:8 4.24381e-05
24 *305:19 *328:8 0
25 *305:32 *564:A 6.30863e-06
26 *305:32 *321:8 4.18985e-05
27 *305:51 *564:A 7.07811e-06
28 *305:51 *321:8 0.00023711
29 *305:51 *321:19 1.77822e-05
30 *305:62 *321:19 3.84423e-05
31 *305:68 *537:A2 4.21717e-05
32 *305:68 *538:A2 4.79358e-06
33 *359:A1 *305:81 2.23871e-06
34 *403:B1 *305:81 7.50163e-06
35 *439:A2 *390:B 3.01743e-06
36 *439:A2 *439:A1 1.21774e-06
37 *505:A2 *505:A1 4.57414e-05
38 *505:A2 *305:19 1.65484e-05
39 *507:A2 *507:A1 1.57402e-05
40 *507:A2 *508:A 2.39679e-06
41 *508:B *508:A 7.19036e-06
42 *548:B1 *305:81 0
43 *550:B2 *305:68 1.62643e-06
44 *550:B2 *305:81 7.59671e-06
45 *557:B *305:81 6.31441e-05
46 *558:B *508:A 1.19839e-05
47 *558:B *305:51 4.92863e-06
48 *559:B1 *305:51 0
49 *559:B1 *305:62 0
50 *562:B *305:51 7.19036e-06
51 *563:A2 *305:51 1.06678e-05
52 *564:B1 *305:68 0
53 *564:B1 *305:81 0
54 *579:D *305:8 1.55581e-05
55 *590:D *305:8 3.17947e-05
56 *590:D *305:19 2.08098e-06
57 *1:21 *305:19 8.34049e-06
58 *49:21 *439:A1 2.23871e-06
59 *49:21 *305:81 6.38328e-06
60 *51:8 *305:81 0
61 *189:12 *305:19 3.77173e-06
62 *192:16 *507:A1 2.76156e-05
63 *192:16 *508:A 1.68643e-06
64 *204:21 *305:81 4.24381e-05
65 *206:8 *305:51 8.75903e-06
66 *206:8 *305:62 1.11168e-06
67 *206:23 *538:A1 0
68 *206:23 *305:68 0
69 *304:8 *305:8 0
70 *304:29 *305:8 0
71 *304:65 *390:B 1.08036e-06
72 *304:65 *439:A1 5.52692e-06
73 *304:65 *305:81 1.71452e-05
*RES
1 *587:Q *305:8 17.7143 
2 *305:8 *505:A1 14.25 
3 *305:8 *305:19 6.35715 
4 *305:19 *507:A1 17.1786 
5 *305:19 *305:32 2.28572 
6 *305:32 *508:A 11.25 
7 *305:32 *305:51 24.6429 
8 *305:51 *539:A 10 
9 *305:51 *305:62 7.28572 
10 *305:62 *305:68 11.8571 
11 *305:68 *537:A1 10 
12 *305:68 *305:81 38.25 
13 *305:81 *439:A1 6.25 
14 *305:81 *390:B 19.8929 
15 *305:62 *538:A1 5.75 
*END

*D_NET *306 0.00172609
*CONN
*P rs2[0] I
*I *534:A2 I *D AND2_X1
*CAP
1 rs2[0] 0.000131845
2 *534:A2 1.47072e-05
3 *306:23 0.000264457
4 *306:15 0.000381595
5 *306:15 *504:A1 2.30003e-05
6 *306:15 *530:A2 0.000118246
7 *306:15 *591:CK 2.94455e-05
8 *306:15 *309:21 5.39069e-05
9 *306:15 *322:9 2.95718e-06
10 *306:15 *326:20 4.98557e-05
11 *306:23 *582:CK 2.62285e-05
12 *306:23 *309:21 1.9768e-05
13 *306:23 *325:21 4.41389e-05
14 *306:23 *325:28 4.95623e-05
15 *523:A1 *306:23 1.68643e-06
16 *523:A2 *306:15 9.06038e-05
17 *523:A2 *306:23 9.86756e-05
18 *524:A2 *306:23 1.43715e-05
19 *527:A1 *306:23 9.5257e-06
20 *527:A2 *534:A2 2.55787e-06
21 *527:A2 *306:23 3.60792e-05
22 *573:D *306:23 0.000106874
23 *576:D *306:15 9.15042e-05
24 *580:D *306:23 7.99933e-06
25 *582:D *306:23 1.71452e-05
26 *584:D *306:23 3.50842e-05
27 *234:104 *534:A2 4.26671e-06
28 *301:10 *306:23 0
*RES
1 rs2[0] *306:15 29.4822 
2 *306:15 *306:23 48.9286 
3 *306:23 *534:A2 6.75 
*END

*D_NET *307 0.00112972
*CONN
*P rs2[1] I
*I *533:A2 I *D AND2_X1
*CAP
1 rs2[1] 0.000214491
2 *533:A2 0
3 *307:9 0.000214491
4 result[6] *307:9 6.22417e-05
5 *567:A2 *307:9 6.22417e-05
6 *234:64 *307:9 5.25128e-05
7 *234:90 *307:9 2.67903e-05
8 *234:92 *307:9 2.19193e-05
9 *234:98 *307:9 5.1186e-05
10 *234:100 *307:9 4.88515e-05
11 *234:104 *307:9 6.22621e-05
12 *291:13 *307:9 0.000312737
*RES
1 rs2[1] *307:9 47.7322 
2 *307:9 *533:A2 5 
*END

*D_NET *308 0.0010828
*CONN
*P rs2[2] I
*I *532:A2 I *D AND2_X1
*CAP
1 rs2[2] 0.000268854
2 *532:A2 2.06429e-05
3 *308:25 0.000289497
4 *308:25 *530:A2 2.76156e-05
5 *308:25 *531:A2 2.79219e-05
6 *308:25 *591:CK 1.73034e-05
7 result[0] *308:25 8.07266e-05
8 *524:A1 *308:25 1.76665e-06
9 *527:A2 *532:A2 0
10 *527:A2 *308:25 1.64486e-05
11 *535:A2 *308:25 7.216e-05
12 *567:A2 *308:25 5.74249e-05
13 *576:D *308:25 2.08064e-05
14 *583:D *532:A2 9.31044e-06
15 *591:D *308:25 8.6521e-05
16 *592:D *308:25 0
17 *593:D *308:25 1.38706e-05
18 *234:64 *308:25 2.14856e-06
19 *234:90 *308:25 2.15875e-05
20 *234:92 *532:A2 4.13019e-05
21 *234:92 *308:25 2.86475e-06
22 *234:98 *532:A2 2.75346e-06
23 *278:22 *308:25 0
24 *297:15 *308:25 1.2752e-06
*RES
1 rs2[2] *308:25 47.8393 
2 *308:25 *532:A2 8.75 
*END

*D_NET *309 0.00165606
*CONN
*P rs2[3] I
*I *531:A2 I *D AND2_X1
*CAP
1 rs2[3] 0.000128127
2 *531:A2 1.91398e-05
3 *309:21 0.0003086
4 *309:15 0.000417587
5 *309:15 *529:A2 6.38989e-05
6 *309:15 *324:71 1.0323e-05
7 *309:21 zero 2.3624e-05
8 *309:21 *312:13 4.12459e-06
9 negative *309:21 2.20253e-05
10 result[7] *309:21 6.56366e-05
11 *521:A2 *309:15 7.71294e-05
12 *521:A2 *309:21 1.68643e-06
13 *523:A2 *309:21 2.30024e-06
14 *524:A2 *309:21 6.15703e-05
15 *536:A2 *309:15 1.61905e-05
16 *575:D *309:21 6.13183e-06
17 *577:D *309:15 3.43008e-06
18 *584:D *309:21 1.83486e-05
19 *218:43 *309:15 3.71271e-05
20 *221:18 *309:15 1.26972e-05
21 *234:64 *531:A2 4.07694e-05
22 *234:68 *309:21 0
23 *234:90 *531:A2 2.39679e-06
24 *278:22 *309:21 1.37882e-05
25 *293:11 *309:21 1.48772e-05
26 *297:15 *309:15 4.11048e-05
27 *297:15 *309:21 0.000141831
28 *306:15 *309:21 5.39069e-05
29 *306:23 *309:21 1.9768e-05
30 *308:25 *531:A2 2.79219e-05
*RES
1 rs2[3] *309:15 25.9822 
2 *309:15 *309:21 45.9643 
3 *309:21 *531:A2 13.75 
*END

*D_NET *310 0.000424468
*CONN
*P rs2[4] I
*I *530:A2 I *D AND2_X1
*CAP
1 rs2[4] 8.57043e-05
2 *530:A2 8.57043e-05
3 *530:A2 *322:9 8.63225e-05
4 *591:D *530:A2 2.08753e-05
5 *306:15 *530:A2 0.000118246
6 *308:25 *530:A2 2.76156e-05
*RES
1 rs2[4] *530:A2 25.7321 
*END

*D_NET *311 0.000322314
*CONN
*P rs2[5] I
*I *529:A2 I *D AND2_X1
*CAP
1 rs2[5] 7.06817e-05
2 *529:A2 7.06817e-05
3 *529:A1 *529:A2 1.92742e-05
4 *536:A2 *529:A2 6.32257e-05
5 *234:43 *529:A2 3.45517e-05
6 *309:15 *529:A2 6.38989e-05
*RES
1 rs2[5] *529:A2 23.2321 
*END

*D_NET *312 0.00101381
*CONN
*P rs2[6] I
*I *528:A2 I *D AND2_X1
*CAP
1 rs2[6] 0.000252109
2 *528:A2 0
3 *312:13 0.000252109
4 *312:13 *324:93 1.97008e-05
5 *312:13 *328:59 0
6 result[5] *312:13 0.000171663
7 result[7] *312:13 0.000282068
8 *528:A1 *312:13 2.75346e-06
9 *597:D *312:13 0
10 *278:14 *312:13 3.19164e-06
11 *293:11 *312:13 2.60904e-05
12 *309:21 *312:13 4.12459e-06
*RES
1 rs2[6] *312:13 46.2679 
2 *312:13 *528:A2 5 
*END

*D_NET *313 0.00083384
*CONN
*P rs2[7] I
*I *566:A2 I *D AND2_X1
*CAP
1 rs2[7] 0.000222214
2 *566:A2 0.000222214
3 *566:A2 *590:CK 2.17321e-05
4 *566:A2 *327:6 1.92088e-05
5 *566:A2 *327:45 3.64734e-05
6 *521:A2 *566:A2 7.65935e-05
7 *522:A2 *566:A2 3.23723e-07
8 *536:A2 *566:A2 3.93453e-05
9 *552:A2 *566:A2 7.19036e-06
10 *556:C1 *566:A2 2.35379e-05
11 *588:D *566:A2 7.72792e-06
12 *599:D *566:A2 4.07694e-05
13 *218:43 *566:A2 1.48843e-05
14 *221:18 *566:A2 4.0506e-06
15 *234:10 *566:A2 2.39679e-06
16 *234:37 *566:A2 1.82661e-05
17 *234:41 *566:A2 3.19164e-07
18 *293:11 *566:A2 7.65935e-05
*RES
1 rs2[7] *566:A2 45.8036 
*END

*D_NET *314 0.00549929
*CONN
*I *512:A2 I *D OAI22_X1
*I *331:A I *D INV_X1
*I *432:A2 I *D NAND2_X1
*I *433:S I *D MUX2_X1
*I *406:S I *D MUX2_X1
*I *454:S I *D MUX2_X1
*I *405:B1 I *D AOI21_X1
*I *435:S I *D MUX2_X1
*I *545:B1 I *D AOI21_X1
*I *437:S I *D MUX2_X1
*I *390:S I *D MUX2_X1
*I *465:S I *D MUX2_X1
*I *482:B1 I *D AOI21_X1
*I *415:B1 I *D AOI21_X1
*I *517:B1 I *D AOI21_X1
*I *371:A2 I *D AND2_X1
*I *372:A2 I *D NAND2_X1
*I *572:Q O *D DFF_X1
*CAP
1 *512:A2 4.12696e-06
2 *331:A 5.0077e-05
3 *432:A2 3.6566e-05
4 *433:S 1.50803e-05
5 *406:S 0
6 *454:S 0
7 *405:B1 7.18925e-05
8 *435:S 0
9 *545:B1 4.41798e-05
10 *437:S 0
11 *390:S 3.30675e-05
12 *465:S 2.97275e-05
13 *482:B1 1.66226e-05
14 *415:B1 1.62664e-05
15 *517:B1 2.59579e-05
16 *371:A2 8.71307e-06
17 *372:A2 6.54501e-06
18 *572:Q 8.76753e-05
19 *314:177 9.08316e-05
20 *314:157 5.47472e-05
21 *314:146 0.000133333
22 *314:138 0.000209736
23 *314:132 0.000251251
24 *314:97 0.00019901
25 *314:89 5.54376e-05
26 *314:76 9.07639e-05
27 *314:74 7.70763e-05
28 *314:70 8.97319e-05
29 *314:59 7.50284e-05
30 *314:46 0.000113338
31 *314:35 7.33065e-05
32 *314:31 0.000110133
33 *314:27 0.000162983
34 *314:12 0.000199993
35 *331:A *315:61 9.5257e-06
36 *405:B1 *315:186 2.75346e-06
37 *405:B1 *315:202 0
38 *482:B1 *315:126 0
39 *482:B1 *315:137 0
40 *517:B1 *315:78 6.54339e-05
41 *545:B1 *545:A 2.75346e-06
42 *314:12 *315:14 5.01378e-05
43 *314:31 *315:61 2.25647e-05
44 *314:46 *418:B2 4.32144e-07
45 *314:46 *315:70 1.1519e-06
46 *314:46 *316:53 4.36039e-05
47 *314:59 *315:78 3.81944e-05
48 *314:59 *315:107 5.41015e-05
49 *314:89 *456:A1 1.25215e-05
50 *314:132 *483:B1 3.1718e-05
51 *375:A *314:12 6.89712e-05
52 *389:A2 *314:146 7.19036e-06
53 *390:B *390:S 5.54348e-05
54 *406:A *314:89 2.39679e-06
55 *406:A *314:97 7.19036e-06
56 *410:B1 *314:132 5.42579e-06
57 *411:A *314:138 1.91498e-06
58 *411:B2 *314:138 5.67552e-05
59 *411:B2 *314:146 4.73284e-06
60 *414:A1 *415:B1 2.43548e-06
61 *415:A *314:74 3.09411e-06
62 *415:A *314:76 7.30645e-06
63 *415:B2 *415:B1 9.6515e-06
64 *416:A2 *314:46 0
65 *417:A1 *331:A 4.25917e-06
66 *417:A1 *314:31 3.13574e-06
67 *417:A1 *314:35 3.23723e-07
68 *417:A3 *314:35 1.21774e-06
69 *417:A3 *314:46 7.21335e-06
70 *419:B *314:138 4.6837e-06
71 *419:B *314:146 0
72 *427:A1 *314:70 2.26306e-06
73 *432:A1 *432:A2 2.43548e-06
74 *433:A *314:74 2.14856e-06
75 *433:A *314:76 1.18572e-05
76 *435:B *405:B1 4.73094e-05
77 *435:B *314:138 3.57949e-05
78 *437:A *314:146 0
79 *439:A2 *390:S 5.11191e-06
80 *455:B *314:132 3.69646e-06
81 *456:A2 *465:S 7.19036e-06
82 *456:A2 *314:97 3.02372e-05
83 *465:B *465:S 6.70962e-05
84 *465:B *314:97 1.66988e-05
85 *467:B2 *405:B1 3.89132e-05
86 *472:A *314:132 5.94167e-07
87 *482:A *314:76 1.62062e-05
88 *483:B2 *314:132 7.81367e-06
89 *484:A *314:132 0
90 *484:B1 *314:89 3.83453e-06
91 *484:B1 *314:132 1.19928e-05
92 *488:B2 *314:132 1.88334e-06
93 *500:B1 *432:A2 4.26902e-05
94 *500:B1 *314:70 2.96955e-05
95 *500:B1 *314:74 2.52965e-06
96 *500:B2 *432:A2 2.42461e-05
97 *500:B2 *314:74 1.60494e-06
98 *501:B1 *465:S 9.77674e-06
99 *501:B1 *314:97 8.64288e-07
100 *501:B1 *314:132 2.83434e-06
101 *511:A2 *314:27 0.000108745
102 *512:A1 *512:A2 4.97191e-06
103 *512:A1 *314:27 3.45517e-05
104 *512:B2 *314:27 2.55787e-06
105 *514:B *314:12 9.22959e-05
106 *516:A1 *314:31 4.24402e-05
107 *516:A2 *512:A2 7.19036e-06
108 *516:A2 *314:27 7.19036e-06
109 *516:A2 *314:31 1.66988e-05
110 *517:B2 *517:B1 1.02133e-05
111 *518:C1 *482:B1 1.11168e-06
112 *519:A *314:46 0
113 *545:B2 *545:B1 4.37715e-05
114 *546:A2 *545:B1 1.91142e-05
115 *547:A *405:B1 2.94435e-05
116 *547:C2 *314:146 4.12459e-06
117 *2:8 *314:12 3.02351e-05
118 *61:8 *314:46 4.00561e-05
119 *61:10 *517:B1 2.26306e-06
120 *122:8 *465:S 6.48216e-07
121 *125:12 *405:B1 9.66826e-06
122 *125:12 *314:146 2.00032e-05
123 *125:12 *314:177 1.55645e-05
124 *126:14 *545:B1 4.52612e-06
125 *181:10 *314:12 0.000136375
126 *181:10 *314:27 0.000207373
127 *229:43 *405:B1 3.19164e-07
128 *229:112 *314:138 2.37894e-05
129 *229:112 *314:146 5.51578e-05
130 *230:22 *331:A 2.3767e-06
131 *230:49 *314:59 5.7416e-06
132 *230:49 *314:70 5.39412e-06
133 *230:64 *415:B1 4.32144e-07
134 *230:64 *432:A2 0
135 *230:64 *314:70 2.84765e-06
136 *230:64 *314:74 2.33065e-06
137 *230:97 *314:89 2.15208e-06
138 *230:97 *314:132 1.12438e-05
139 *230:97 *314:138 6.49208e-05
140 *230:99 *314:146 9.70757e-05
141 *298:8 *314:12 5.51848e-05
142 *298:19 *314:12 5.14369e-05
143 *298:30 *314:12 0.000159586
144 *298:30 *314:27 7.14654e-06
145 *298:41 *314:27 2.71922e-05
146 *298:52 *314:27 2.3767e-06
147 *298:52 *314:31 4.36589e-06
148 *298:58 *314:27 0
149 *298:58 *314:35 9.62051e-07
150 *299:53 *314:12 1.53357e-05
151 *299:109 *314:46 7.12186e-06
152 *299:109 *314:59 4.43868e-06
153 *300:75 *415:B1 5.52959e-06
154 *300:75 *517:B1 5.41015e-05
155 *300:75 *314:59 0.000129699
156 *300:75 *314:70 3.02372e-05
157 *300:79 *314:70 3.691e-06
158 *301:67 *482:B1 4.24402e-05
159 *301:78 *314:76 4.32144e-07
160 *301:78 *314:89 9.89426e-06
161 *301:78 *314:97 2.39679e-06
162 *302:71 *314:132 1.52083e-06
163 *302:83 *314:97 9.80889e-06
164 *302:83 *314:132 2.53661e-05
165 *302:109 *314:132 4.75692e-05
166 *303:79 *314:146 0
167 *304:69 *390:S 0.000106082
168 *304:69 *314:157 1.27467e-05
169 *304:78 *545:B1 5.1189e-05
170 *304:78 *314:157 1.77822e-05
*RES
1 *572:Q *314:12 32.1072 
2 *314:12 *372:A2 10.75 
3 *314:12 *314:27 24.25 
4 *314:27 *314:31 12.7143 
5 *314:31 *314:35 5.75 
6 *314:35 *371:A2 5.92857 
7 *314:35 *314:46 13.25 
8 *314:46 *517:B1 15.2143 
9 *314:46 *314:59 7.03572 
10 *314:59 *415:B1 12.25 
11 *314:59 *314:70 4.32143 
12 *314:70 *314:74 7.75 
13 *314:74 *314:76 5.25 
14 *314:76 *482:B1 17.2857 
15 *314:76 *314:89 4.75 
16 *314:89 *314:97 12.8571 
17 *314:97 *465:S 19.3929 
18 *314:97 *314:132 39.6429 
19 *314:132 *314:138 21.1786 
20 *314:138 *314:146 23.2143 
21 *314:146 *390:S 16.3571 
22 *314:146 *314:157 1.60714 
23 *314:157 *437:S 10 
24 *314:157 *545:B1 17.1071 
25 *314:138 *314:177 2.28572 
26 *314:177 *435:S 10 
27 *314:177 *405:B1 20.5714 
28 *314:132 *454:S 5 
29 *314:89 *406:S 5 
30 *314:74 *433:S 6.60714 
31 *314:70 *432:A2 15.0357 
32 *314:31 *331:A 15.75 
33 *314:27 *512:A2 5.75 
*END

*D_NET *315 0.0071279
*CONN
*I *369:A2 I *D AND2_X1
*I *418:B2 I *D OAI21_X1
*I *483:B1 I *D AOI21_X1
*I *484:B2 I *D OAI21_X1
*I *450:A1 I *D OR3_X1
*I *405:A I *D AOI21_X1
*I *545:A I *D AOI21_X1
*I *330:A I *D INV_X1
*I *469:A1 I *D NOR2_X1
*I *436:C2 I *D OAI211_X1
*I *467:B1 I *D AOI21_X1
*I *500:A I *D AOI21_X1
*I *501:B2 I *D AOI21_X1
*I *456:A1 I *D NOR2_X1
*I *457:C2 I *D AOI211_X1
*I *429:A1 I *D OR2_X1
*I *518:C2 I *D AOI221_X1
*I *517:A I *D AOI21_X1
*I *417:A2 I *D NAND3_X1
*I *513:A1 I *D NOR3_X1
*I *373:A2 I *D NOR2_X1
*I *370:A2 I *D NAND2_X1
*I *573:Q O *D DFF_X1
*CAP
1 *369:A2 3.21427e-06
2 *418:B2 2.95175e-05
3 *483:B1 6.89918e-05
4 *484:B2 0
5 *450:A1 0.00022533
6 *405:A 0
7 *545:A 7.62132e-05
8 *330:A 0
9 *469:A1 0.000106078
10 *436:C2 0
11 *467:B1 4.73856e-06
12 *500:A 7.32915e-05
13 *501:B2 1.60497e-05
14 *456:A1 9.83094e-06
15 *457:C2 2.55519e-05
16 *429:A1 8.71307e-06
17 *518:C2 3.98857e-05
18 *517:A 0
19 *417:A2 8.76238e-06
20 *513:A1 0
21 *373:A2 1.77772e-05
22 *370:A2 0
23 *573:Q 0.000158067
24 *315:280 0.000118728
25 *315:263 0.000300691
26 *315:232 9.84008e-05
27 *315:215 0.000164796
28 *315:202 8.65157e-05
29 *315:186 0.000109522
30 *315:169 0.000267049
31 *315:150 0.000319777
32 *315:137 8.51054e-05
33 *315:126 7.16236e-05
34 *315:109 6.20011e-05
35 *315:107 0.000131652
36 *315:78 9.17032e-05
37 *315:72 0.000149131
38 *315:70 6.90261e-05
39 *315:61 0.000157248
40 *315:53 0.000169197
41 *315:40 0.000123405
42 *315:25 0.000127766
43 *315:14 0.000201656
44 *418:B2 *316:53 3.15449e-06
45 *450:A1 *316:68 1.57711e-05
46 *483:B1 *483:A 8.43215e-07
47 *518:C2 *316:53 5.47944e-06
48 *315:14 *572:CK 0.000118577
49 *315:78 *316:53 9.33172e-06
50 *315:169 *467:A 1.72426e-05
51 *331:A *315:61 9.5257e-06
52 *369:A1 *369:A2 5.33113e-06
53 *369:A1 *315:61 7.19036e-06
54 *370:A1 *315:25 3.09143e-06
55 *373:A1 *373:A2 3.09143e-06
56 *375:B1 *373:A2 8.43215e-07
57 *375:B1 *315:14 0
58 *375:B2 *315:25 1.09659e-05
59 *375:B2 *315:40 5.86754e-06
60 *405:B1 *315:186 2.75346e-06
61 *405:B1 *315:202 0
62 *410:B1 *483:B1 2.08416e-06
63 *415:B2 *315:107 2.83289e-05
64 *416:A2 *315:61 9.38792e-05
65 *417:A1 *417:A2 2.75346e-06
66 *417:A3 *417:A2 1.32323e-05
67 *417:A3 *315:70 4.79358e-06
68 *418:A *418:B2 3.46596e-06
69 *418:A *315:70 2.96441e-06
70 *418:A *315:107 1.13379e-05
71 *418:B1 *418:B2 2.39679e-06
72 *418:B1 *315:107 1.90208e-06
73 *428:A *315:78 2.08098e-06
74 *433:A *500:A 0
75 *434:A2 *467:B1 7.72792e-06
76 *434:A2 *315:169 2.61827e-06
77 *434:A2 *315:186 2.07819e-05
78 *435:B *315:202 2.77917e-07
79 *436:C1 *469:A1 8.33759e-07
80 *436:C1 *315:202 2.39679e-06
81 *436:C1 *315:215 2.30003e-05
82 *436:C1 *315:232 3.34324e-06
83 *437:A *545:A 0
84 *438:A1 *545:A 2.70833e-06
85 *438:A1 *315:215 1.63361e-05
86 *438:A1 *315:232 1.32348e-05
87 *440:A *469:A1 3.81748e-05
88 *440:A *315:232 1.52083e-06
89 *441:A2 *469:A1 8.39211e-06
90 *454:B *315:186 1.52842e-06
91 *456:A2 *456:A1 2.52965e-06
92 *456:A2 *315:126 3.02351e-05
93 *456:A2 *315:137 6.70962e-05
94 *456:A2 *315:150 2.94455e-05
95 *457:A *457:C2 1.26991e-05
96 *457:A *315:107 1.50708e-05
97 *457:A *315:263 4.79358e-06
98 *457:B *450:A1 2.14667e-06
99 *457:B *457:C2 4.24381e-05
100 *457:B *315:126 3.59502e-05
101 *457:B *315:280 1.88929e-06
102 *457:C1 *315:107 7.28612e-05
103 *458:B *457:C2 5.43932e-05
104 *465:A *315:150 1.02238e-05
105 *465:B *315:150 8.1183e-06
106 *465:B *315:169 7.72537e-06
107 *467:B2 *315:186 1.61658e-05
108 *467:B2 *315:202 4.02344e-05
109 *467:B2 *315:215 3.73352e-05
110 *468:A1 *315:169 4.01855e-05
111 *468:A2 *467:B1 8.43215e-07
112 *469:A2 *469:A1 1.21774e-06
113 *470:B *315:169 4.32319e-05
114 *470:B *315:186 9.73131e-06
115 *471:A1 *315:169 7.72792e-06
116 *472:B1 *315:107 3.76945e-05
117 *472:B1 *315:263 3.95211e-05
118 *473:A2 *450:A1 1.72501e-06
119 *476:A2 *450:A1 1.90192e-05
120 *476:A3 *450:A1 7.63765e-06
121 *482:B1 *315:126 0
122 *482:B1 *315:137 0
123 *483:B2 *483:B1 2.39679e-06
124 *484:A *483:B1 2.39679e-06
125 *484:B1 *456:A1 6.85774e-07
126 *484:B1 *483:B1 8.43215e-07
127 *484:B1 *315:280 1.22742e-05
128 *488:B2 *450:A1 8.57169e-06
129 *488:B2 *483:B1 5.94783e-07
130 *488:B2 *315:280 9.08281e-06
131 *494:C1 *315:53 2.24234e-05
132 *500:B1 *500:A 2.75346e-06
133 *501:A *500:A 0
134 *501:B1 *501:B2 4.07669e-05
135 *502:B1 *315:137 0
136 *502:B1 *315:150 0
137 *511:A1 *315:40 0
138 *511:A2 *315:40 5.85076e-06
139 *513:A2 *315:40 2.75346e-06
140 *513:A2 *315:53 5.29343e-05
141 *513:A3 *315:61 3.91587e-05
142 *514:B *315:14 8.805e-05
143 *515:B1 *315:25 0
144 *515:B2 *315:25 1.3143e-06
145 *515:B2 *315:40 2.61155e-05
146 *515:B2 *315:53 1.21774e-06
147 *515:C2 *315:53 1.43238e-06
148 *515:C2 *315:61 1.05325e-05
149 *516:A1 *315:61 2.44936e-05
150 *516:A2 *315:61 1.22802e-05
151 *517:B1 *315:78 6.54339e-05
152 *517:B2 *315:78 1.43238e-06
153 *518:B1 *518:C2 1.21774e-06
154 *518:B2 *518:C2 9.89783e-06
155 *518:C1 *457:C2 2.26306e-06
156 *518:C1 *315:126 8.34006e-06
157 *519:A *518:C2 0
158 *545:B1 *545:A 2.75346e-06
159 *546:A1 *545:A 1.12864e-05
160 *546:A2 *545:A 6.24431e-06
161 *547:A *315:202 0
162 *547:B *545:A 2.60312e-05
163 *547:B *315:232 4.16195e-06
164 *547:C1 *469:A1 8.00448e-06
165 *548:A2 *469:A1 1.52083e-06
166 *549:A1 *469:A1 2.55331e-06
167 *549:A2 *469:A1 2.78761e-05
168 *572:D *315:14 1.09662e-05
169 *2:8 *315:14 5.67661e-05
170 *61:8 *315:70 1.19901e-05
171 *61:10 *315:78 1.06678e-05
172 *61:16 *369:A2 7.72792e-06
173 *61:16 *315:61 4.36039e-05
174 *63:8 *373:A2 8.43215e-07
175 *63:31 *315:53 4.24402e-05
176 *64:20 *315:53 1.73125e-05
177 *64:20 *315:61 2.52965e-06
178 *65:10 *373:A2 6.48216e-07
179 *77:38 *450:A1 1.79463e-06
180 *80:10 *469:A1 2.23871e-06
181 *98:58 *315:186 2.71395e-05
182 *98:58 *315:202 1.27283e-05
183 *99:39 *450:A1 9.21199e-06
184 *106:8 *315:61 2.33655e-05
185 *108:6 *457:C2 7.72792e-06
186 *108:6 *315:263 0
187 *117:10 *418:B2 1.73151e-05
188 *117:10 *315:70 7.19036e-06
189 *122:8 *500:A 3.47527e-05
190 *122:8 *315:169 4.36905e-05
191 *125:12 *469:A1 3.02683e-06
192 *126:14 *545:A 2.80204e-06
193 *129:10 *469:A1 3.01962e-05
194 *152:8 *315:150 5.94167e-07
195 *174:16 *450:A1 1.22802e-05
196 *174:16 *457:C2 7.66675e-07
197 *174:16 *518:C2 3.88077e-05
198 *181:10 *315:14 0.000197336
199 *188:12 *450:A1 0
200 *229:21 *545:A 7.29164e-07
201 *229:21 *315:202 1.88334e-06
202 *229:21 *315:215 0
203 *229:43 *315:186 2.01842e-05
204 *229:43 *315:202 1.40229e-05
205 *229:76 *483:B1 2.51151e-05
206 *230:16 *315:70 5.33113e-06
207 *230:22 *315:61 1.2203e-05
208 *230:22 *315:70 4.57414e-05
209 *230:97 *315:107 0
210 *242:21 *315:14 0
211 *298:8 *315:14 1.51249e-05
212 *298:30 *315:25 9.22959e-05
213 *298:30 *315:40 6.26024e-05
214 *298:41 *315:40 6.84316e-05
215 *299:40 *315:25 1.41361e-05
216 *299:70 *373:A2 1.9025e-06
217 *299:70 *315:53 7.93012e-05
218 *299:81 *315:53 1.66988e-05
219 *299:96 *315:70 1.26998e-05
220 *299:109 *315:70 1.82068e-05
221 *299:109 *315:78 1.66988e-05
222 *299:109 *315:107 5.01473e-05
223 *301:67 *315:137 0
224 *301:78 *501:B2 4.07669e-05
225 *302:83 *483:B1 3.28657e-05
226 *302:83 *315:280 3.55452e-05
227 *314:12 *315:14 5.01378e-05
228 *314:31 *315:61 2.25647e-05
229 *314:46 *418:B2 4.32144e-07
230 *314:46 *315:70 1.1519e-06
231 *314:59 *315:78 3.81944e-05
232 *314:59 *315:107 5.41015e-05
233 *314:89 *456:A1 1.25215e-05
234 *314:132 *483:B1 3.1718e-05
*RES
1 *573:Q *315:14 41.3572 
2 *315:14 *370:A2 5 
3 *315:14 *315:25 11.75 
4 *315:25 *373:A2 11.75 
5 *315:25 *315:40 15.2857 
6 *315:40 *513:A1 5 
7 *315:40 *315:53 20.25 
8 *315:53 *315:61 28.75 
9 *315:61 *417:A2 6.25 
10 *315:61 *315:70 6.75 
11 *315:70 *315:72 5 
12 *315:72 *315:78 12.0714 
13 *315:78 *517:A 5 
14 *315:78 *518:C2 10.75 
15 *315:78 *429:A1 5.92857 
16 *315:72 *315:107 22.0714 
17 *315:107 *315:109 5 
18 *315:109 *457:C2 15.0714 
19 *315:109 *315:126 5.32143 
20 *315:126 *456:A1 11.25 
21 *315:126 *315:137 3.64286 
22 *315:137 *501:B2 13.75 
23 *315:137 *315:150 10.6786 
24 *315:150 *500:A 14.25 
25 *315:150 *315:169 36.5714 
26 *315:169 *467:B1 5.75 
27 *315:169 *315:186 18.4643 
28 *315:186 *315:202 17.5714 
29 *315:202 *436:C2 5 
30 *315:202 *315:215 10.9286 
31 *315:215 *469:A1 24.3929 
32 *315:215 *315:232 7.85714 
33 *315:232 *330:A 5 
34 *315:232 *545:A 23.8929 
35 *315:186 *405:A 5 
36 *315:107 *315:263 8.75 
37 *315:263 *450:A1 34.9643 
38 *315:263 *315:280 11.3929 
39 *315:280 *484:B2 5 
40 *315:280 *483:B1 24.5714 
41 *315:70 *418:B2 8.67857 
42 *315:53 *369:A2 5.75 
*END

*D_NET *316 0.00476436
*CONN
*I *329:A I *D INV_X1
*I *467:A I *D AOI21_X1
*I *483:A I *D AOI21_X1
*I *413:A1 I *D NAND4_X1
*I *481:B2 I *D AOI21_X1
*I *394:A1 I *D NOR2_X1
*I *408:A1 I *D NOR2_X1
*I *409:A1 I *D OR2_X1
*I *485:B1 I *D OAI21_X1
*I *368:A2 I *D AND2_X1
*I *376:B I *D XOR2_X1
*I *574:Q O *D DFF_X1
*CAP
1 *329:A 5.41344e-06
2 *467:A 2.44328e-05
3 *483:A 5.91599e-05
4 *413:A1 0.000149416
5 *481:B2 0
6 *394:A1 3.72551e-05
7 *408:A1 1.14537e-05
8 *409:A1 0
9 *485:B1 1.53407e-05
10 *368:A2 1.53494e-05
11 *376:B 5.42098e-06
12 *574:Q 0.000109168
13 *316:138 0.00018444
14 *316:109 0.000250263
15 *316:107 4.14429e-05
16 *316:85 0.000148737
17 *316:68 0.000184495
18 *316:53 0.000328667
19 *316:30 0.000308395
20 *316:19 0.000114774
21 *316:8 0.000152037
22 *368:A1 *368:A2 2.39679e-06
23 *377:A *316:19 6.50581e-06
24 *377:A *316:30 3.49085e-06
25 *392:A2 *413:A1 2.52965e-06
26 *404:B1 *413:A1 2.68997e-05
27 *404:B2 *413:A1 2.89018e-05
28 *404:C2 *413:A1 4.10034e-05
29 *409:A2 *316:53 2.75346e-06
30 *409:A2 *316:68 4.96458e-05
31 *410:B1 *483:A 0.000103032
32 *416:A2 *316:53 6.78918e-06
33 *418:B1 *316:53 2.23871e-06
34 *418:B2 *316:53 3.15449e-06
35 *419:C2 *329:A 1.40196e-06
36 *419:C2 *408:A1 6.84675e-06
37 *419:C2 *316:68 4.10371e-05
38 *419:C2 *316:85 1.59582e-06
39 *419:C2 *316:107 6.82202e-07
40 *434:A2 *483:A 3.82213e-05
41 *450:A1 *316:68 1.57711e-05
42 *457:A *316:53 3.58851e-06
43 *457:C1 *316:53 0
44 *470:A *413:A1 7.86738e-05
45 *470:B *329:A 2.75346e-06
46 *470:B *413:A1 8.80633e-06
47 *470:B *467:A 1.10803e-05
48 *470:B *316:138 1.15028e-05
49 *472:B1 *316:68 0
50 *473:A1 *316:68 2.08098e-06
51 *473:A1 *316:85 0
52 *476:A1 *316:107 3.19164e-07
53 *476:A2 *316:68 1.8031e-05
54 *479:B2 *316:8 6.78899e-05
55 *480:B1 *376:B 2.39679e-06
56 *481:A *394:A1 7.18127e-05
57 *481:A *413:A1 0
58 *481:A *316:138 0
59 *481:B1 *316:107 1.16008e-05
60 *481:B1 *316:138 7.85075e-05
61 *483:B1 *483:A 8.43215e-07
62 *483:B2 *483:A 1.90208e-06
63 *485:A *485:B1 2.39679e-06
64 *485:B2 *485:B1 8.43215e-07
65 *486:A1 *316:30 1.50871e-05
66 *487:A2 *368:A2 0
67 *487:A2 *485:B1 0
68 *488:B1 *316:85 1.88354e-05
69 *488:B1 *316:107 0
70 *488:B2 *316:68 2.31472e-05
71 *488:B2 *316:85 0
72 *489:B *316:8 8.22158e-05
73 *490:A *376:B 7.72792e-06
74 *490:A *316:8 2.3767e-06
75 *490:B1 *316:8 1.43544e-05
76 *491:A1 *316:8 2.08098e-06
77 *491:A1 *316:19 2.46481e-05
78 *491:A1 *316:30 1.06623e-05
79 *491:A3 *316:8 0.000107955
80 *511:A2 *485:B1 1.04717e-05
81 *513:A3 *316:53 2.93163e-05
82 *515:B1 *316:30 0
83 *515:B1 *316:53 0
84 *515:B2 *316:8 0
85 *517:B2 *316:53 0
86 *518:C1 *316:53 1.87392e-05
87 *518:C2 *316:53 5.47944e-06
88 *520:B2 *413:A1 1.66988e-05
89 *58:10 *368:A2 2.39679e-06
90 *63:31 *368:A2 0
91 *63:31 *485:B1 3.19164e-07
92 *63:31 *316:30 4.12796e-06
93 *64:20 *316:53 6.7642e-05
94 *65:10 *316:19 4.32319e-05
95 *65:10 *316:30 6.44316e-05
96 *65:12 *316:8 2.94455e-05
97 *65:12 *316:19 0.000102626
98 *65:38 *368:A2 3.55053e-06
99 *65:38 *376:B 0
100 *77:44 *413:A1 3.24091e-05
101 *82:8 *413:A1 5.51869e-05
102 *83:23 *394:A1 1.72405e-05
103 *84:14 *413:A1 6.48216e-07
104 *85:31 *413:A1 2.36013e-06
105 *85:31 *316:68 9.87264e-06
106 *85:31 *316:85 5.92329e-05
107 *85:31 *316:107 3.76593e-05
108 *86:18 *413:A1 0
109 *97:8 *413:A1 2.42701e-05
110 *97:31 *413:A1 2.65432e-06
111 *98:37 *316:138 0.000113545
112 *106:8 *316:53 1.76415e-05
113 *108:6 *316:68 1.8031e-05
114 *109:10 *413:A1 1.5872e-05
115 *118:12 *316:53 7.16735e-05
116 *142:8 *316:138 0
117 *143:12 *394:A1 1.29867e-05
118 *159:10 *316:85 7.85075e-05
119 *174:16 *316:53 3.5442e-05
120 *174:16 *316:68 9.76549e-06
121 *203:8 *413:A1 7.19036e-06
122 *228:10 *413:A1 6.13094e-06
123 *229:51 *316:138 4.03536e-05
124 *229:59 *316:138 0
125 *229:65 *408:A1 8.43215e-07
126 *229:65 *316:68 7.72537e-06
127 *243:19 *316:8 2.3767e-06
128 *299:70 *485:B1 6.48216e-07
129 *299:70 *316:30 4.26902e-05
130 *299:70 *316:53 0.000129451
131 *299:81 *316:53 0.000164187
132 *299:96 *316:53 6.44316e-05
133 *300:21 *316:8 0
134 *300:36 *316:8 0
135 *314:46 *316:53 4.36039e-05
136 *315:78 *316:53 9.33172e-06
137 *315:169 *467:A 1.72426e-05
*RES
1 *574:Q *316:8 26.5357 
2 *316:8 *376:B 10.75 
3 *316:8 *316:19 7.71429 
4 *316:19 *368:A2 11.75 
5 *316:19 *316:30 9.75 
6 *316:30 *485:B1 11.75 
7 *316:30 *316:53 42.8572 
8 *316:53 *409:A1 5 
9 *316:53 *316:68 24.8214 
10 *316:68 *408:A1 6.42857 
11 *316:68 *316:85 20.0714 
12 *316:85 *394:A1 20 
13 *316:85 *481:B2 5 
14 *316:85 *316:107 5.42857 
15 *316:107 *316:109 5 
16 *316:109 *413:A1 41.5714 
17 *316:109 *316:138 15.7143 
18 *316:138 *483:A 20.9643 
19 *316:138 *467:A 12.75 
20 *316:107 *329:A 5.75 
*END

*D_NET *317 0.000497512
*CONN
*I *366:A2 I *D AND2_X1
*I *367:A2 I *D NOR2_X1
*I *575:Q O *D DFF_X1
*CAP
1 *366:A2 1.16963e-05
2 *367:A2 0
3 *575:Q 8.08304e-05
4 *317:8 9.25267e-05
5 *462:A *317:8 2.99872e-05
6 *477:B1 *366:A2 0
7 *477:B1 *317:8 0
8 *479:A *317:8 0
9 *57:8 *366:A2 4.29819e-05
10 *277:10 *317:8 0
11 *301:36 *366:A2 3.84423e-05
12 *301:36 *317:8 0.000183804
13 *301:54 *366:A2 1.72426e-05
*RES
1 *575:Q *317:8 21.7857 
2 *317:8 *367:A2 10 
3 *317:8 *366:A2 12.9643 
*END

*D_NET *318 0.000713328
*CONN
*I *363:A2 I *D NAND2_X1
*I *364:A2 I *D NOR2_X1
*I *365:B I *D XNOR2_X1
*I *576:Q O *D DFF_X1
*CAP
1 *363:A2 3.12343e-05
2 *364:A2 0
3 *365:B 0
4 *576:Q 7.09014e-05
5 *318:21 8.92883e-05
6 *318:8 0.000128955
7 *333:A *363:A2 0
8 *363:A1 *363:A2 5.10699e-05
9 *379:A2 *363:A2 2.14856e-06
10 *379:A2 *318:21 5.52692e-06
11 *449:A1 *318:21 0
12 *459:A2 *318:8 1.59409e-05
13 *459:A2 *318:21 7.18184e-06
14 *492:A2 *318:8 6.84295e-05
15 *92:24 *363:A2 4.05911e-05
16 *92:24 *318:21 1.52083e-06
17 *147:10 *318:8 6.76399e-05
18 *164:22 *318:8 1.51304e-05
19 *177:22 *318:8 4.03116e-07
20 *188:12 *318:21 0
21 *302:25 *318:8 1.88334e-06
22 *302:36 *318:8 5.45424e-05
23 *302:47 *318:8 4.80378e-06
24 *302:47 *318:21 4.42732e-05
25 *302:55 *363:A2 3.10376e-06
26 *302:55 *318:21 8.75853e-06
*RES
1 *576:Q *318:8 22.4643 
2 *318:8 *365:B 10 
3 *318:8 *318:21 12.6071 
4 *318:21 *364:A2 5 
5 *318:21 *363:A2 10.6786 
*END

*D_NET *319 0.00151566
*CONN
*I *431:B1 I *D OAI21_X1
*I *362:A2 I *D AND2_X1
*I *380:B I *D XOR2_X1
*I *577:Q O *D DFF_X1
*CAP
1 *431:B1 8.76629e-05
2 *362:A2 3.1504e-05
3 *380:B 6.40748e-06
4 *577:Q 0.000164376
5 *319:19 0.000147832
6 *319:8 0.000199449
7 *319:8 *324:93 0
8 *350:B *319:8 1.29947e-05
9 *362:A1 *362:A2 0
10 *362:A1 *319:8 0
11 *362:A1 *319:19 0
12 *403:A2 *431:B1 2.39679e-06
13 *404:A *431:B1 7.72792e-06
14 *424:A3 *319:8 4.24423e-05
15 *441:A2 *431:B1 1.52083e-06
16 *442:A *362:A2 4.62738e-05
17 *443:A1 *431:B1 8.94258e-06
18 *443:A3 *431:B1 3.23723e-07
19 *444:B *431:B1 3.13279e-05
20 *444:B *319:8 4.37312e-05
21 *444:B *319:19 1.39687e-05
22 *548:A1 *431:B1 1.59582e-06
23 *7:10 *319:8 2.99872e-05
24 *45:14 *319:8 0
25 *71:8 *319:8 6.12649e-05
26 *71:8 *319:19 4.32319e-05
27 *86:92 *431:B1 9.77674e-06
28 *90:84 *431:B1 1.55934e-05
29 *125:12 *431:B1 9.91248e-06
30 *133:14 *319:8 1.11357e-05
31 *303:20 *319:8 4.43868e-06
32 *303:28 *319:8 0.00047265
33 *303:43 *380:B 7.19036e-06
*RES
1 *577:Q *319:8 38.75 
2 *319:8 *380:B 10.75 
3 *319:8 *319:19 4.32143 
4 *319:19 *362:A2 14.25 
5 *319:19 *431:B1 20.8214 
*END

*D_NET *320 0.00171255
*CONN
*I *359:A2 I *D NAND2_X1
*I *360:A2 I *D OR2_X1
*I *578:Q O *D DFF_X1
*CAP
1 *359:A2 4.04648e-05
2 *360:A2 2.0716e-05
3 *578:Q 0.000186681
4 *320:8 0.000247861
5 *359:A1 *359:A2 5.52959e-06
6 *360:A1 *360:A2 4.02344e-05
7 *361:A1 *359:A2 5.46432e-05
8 *383:B1 *320:8 3.91587e-05
9 *384:A3 *320:8 1.20936e-06
10 *388:A2 *320:8 8.75903e-06
11 *403:A2 *359:A2 4.44127e-06
12 *404:A *360:A2 4.57414e-05
13 *506:A1 *320:8 9.72832e-06
14 *540:A1 *359:A2 0
15 *541:B *320:8 0.000157019
16 *543:B1 *320:8 2.16603e-05
17 *548:B1 *359:A2 6.65423e-06
18 *550:B1 *320:8 3.01743e-06
19 *558:A *320:8 0
20 *43:10 *320:8 1.9725e-05
21 *43:19 *320:8 9.90601e-06
22 *51:8 *320:8 2.72171e-06
23 *51:19 *320:8 7.9406e-06
24 *218:12 *320:8 1.11357e-05
25 *304:37 *320:8 0.000653
26 *304:50 *359:A2 9.07104e-05
27 *304:50 *360:A2 7.19036e-06
28 *304:50 *320:8 1.66988e-05
*RES
1 *578:Q *320:8 48.25 
2 *320:8 *360:A2 14.25 
3 *320:8 *359:A2 16.75 
*END

*D_NET *321 0.00102224
*CONN
*I *538:A2 I *D AND2_X1
*I *537:A2 I *D OR2_X1
*I *539:B I *D XOR2_X1
*I *579:Q O *D DFF_X1
*CAP
1 *538:A2 1.01575e-05
2 *537:A2 4.92984e-05
3 *539:B 0
4 *579:Q 7.49386e-05
5 *321:19 7.43572e-05
6 *321:8 8.984e-05
7 *321:8 *564:A 2.66554e-06
8 *538:A1 *538:A2 7.72792e-06
9 *550:C2 *537:A2 1.11331e-05
10 *561:A *538:A2 0
11 *561:B *537:A2 0
12 *561:B *538:A2 0
13 *561:C1 *538:A2 0
14 *562:A *321:8 6.23503e-05
15 *563:A1 *321:8 1.33704e-05
16 *564:B1 *321:8 6.68461e-05
17 *564:B1 *321:19 6.36399e-05
18 *590:D *321:8 4.43868e-06
19 *1:21 *321:8 6.68441e-05
20 *205:6 *537:A2 0
21 *207:38 *537:A2 0
22 *305:19 *321:8 4.24381e-05
23 *305:32 *321:8 4.18985e-05
24 *305:51 *321:8 0.00023711
25 *305:51 *321:19 1.77822e-05
26 *305:62 *321:19 3.84423e-05
27 *305:68 *537:A2 4.21717e-05
28 *305:68 *538:A2 4.79358e-06
*RES
1 *579:Q *321:8 26.5357 
2 *321:8 *539:B 10 
3 *321:8 *321:19 8.64286 
4 *321:19 *537:A2 11.6071 
5 *321:19 *538:A2 6.25 
*END

*D_NET *322 0.00544142
*CONN
*P rst I
*I *422:A1 I *D NOR2_X1
*I *559:A I *D AOI21_X1
*I *564:A I *D AOI21_X1
*I *335:A I *D INV_X1
*I *520:A I *D AOI21_X1
*I *478:A1 I *D NOR2_X1
*I *555:A I *D AOI21_X1
*I *445:A1 I *D NOR2_X1
*I *460:A1 I *D NOR2_X1
*I *492:A1 I *D NOR2_X1
*I *504:A1 I *D NOR2_X1
*CAP
1 rst 9.91014e-05
2 *422:A1 0
3 *559:A 7.11555e-05
4 *564:A 0.000169295
5 *335:A 0.000141298
6 *520:A 0
7 *478:A1 4.76586e-05
8 *555:A 1.20741e-05
9 *445:A1 5.04952e-05
10 *460:A1 2.89267e-05
11 *492:A1 0
12 *504:A1 1.87511e-05
13 *322:149 0.000352898
14 *322:128 0.000533465
15 *322:104 0.000146749
16 *322:89 0.00013576
17 *322:85 0.000321644
18 *322:66 8.42522e-05
19 *322:62 0.000100066
20 *322:45 0.00016167
21 *322:30 0.000166358
22 *322:9 0.000235105
23 *445:A1 *594:CK 1.39417e-05
24 *445:A1 *324:60 1.19868e-05
25 *460:A1 *324:6 2.61827e-06
26 *460:A1 *324:38 5.44903e-06
27 *555:A *328:35 1.8031e-05
28 *322:30 *326:42 1.15279e-05
29 *322:45 *594:CK 2.75346e-06
30 *322:62 *324:53 0
31 *322:62 *326:10 8.15234e-06
32 *322:62 *326:14 2.39679e-06
33 *322:62 *328:35 0
34 *322:66 *326:10 1.04584e-06
35 *322:128 *589:CK 0
36 *322:128 *328:14 0
37 *322:128 *328:16 0
38 *322:128 *328:20 0
39 carry *322:9 0.000167913
40 overflow *445:A1 1.84647e-05
41 result[1] *504:A1 2.94435e-05
42 result[1] *322:9 4.45767e-06
43 result[1] *322:30 1.13438e-05
44 result[2] *322:45 2.08098e-06
45 result[5] *445:A1 7.66765e-06
46 result[5] *322:62 5.52959e-06
47 result[5] *322:66 1.59582e-06
48 result[5] *322:85 2.55787e-06
49 result[6] *504:A1 2.99872e-05
50 result[6] *322:30 1.58414e-05
51 *353:A2 *322:128 0
52 *422:A2 *445:A1 2.84765e-06
53 *422:A2 *322:66 1.32323e-05
54 *422:A2 *322:85 1.581e-05
55 *422:A2 *322:89 0.000146399
56 *422:A2 *322:104 0.000203423
57 *423:A *322:104 8.11762e-05
58 *445:A2 *445:A1 1.2122e-05
59 *445:A2 *555:A 1.25215e-05
60 *445:A2 *322:89 0.000133405
61 *445:A2 *322:128 0
62 *460:A2 *478:A1 2.39679e-06
63 *478:A2 *478:A1 2.39679e-06
64 *492:A2 *322:30 5.51578e-05
65 *505:A2 *564:A 0
66 *507:A1 *564:A 5.46152e-05
67 *507:A1 *322:149 0
68 *510:A *478:A1 6.38328e-07
69 *520:B1 *478:A1 2.75346e-06
70 *520:B1 *322:104 4.97191e-06
71 *523:A2 *504:A1 2.30003e-05
72 *524:A2 *322:30 0
73 *530:A2 *322:9 8.63225e-05
74 *543:B2 *564:A 0
75 *554:A4 *478:A1 2.33779e-06
76 *554:A4 *322:104 1.46861e-05
77 *555:B2 *322:89 4.43868e-06
78 *555:B2 *322:104 4.0504e-05
79 *555:B2 *322:128 0
80 *558:A *564:A 1.01343e-05
81 *558:B *564:A 1.045e-05
82 *558:C1 *564:A 9.73131e-06
83 *559:B1 *559:A 2.44308e-05
84 *559:B2 *559:A 6.85774e-07
85 *563:A1 *564:A 1.00295e-05
86 *564:B1 *564:A 1.87392e-05
87 *576:D *322:9 1.41914e-05
88 *576:D *322:30 3.22985e-05
89 *577:D *322:128 7.72792e-06
90 *579:D *322:128 0
91 *589:D *335:A 0.000185381
92 *589:D *559:A 4.14059e-05
93 *589:D *322:149 0.000241107
94 *590:D *335:A 0
95 *590:D *559:A 0
96 *590:D *322:149 0
97 *594:D *322:45 1.31201e-05
98 *595:D *478:A1 1.03979e-05
99 *596:D *322:30 1.87637e-06
100 *598:D *460:A1 4.98241e-05
101 *598:D *322:30 2.20505e-05
102 *598:D *322:45 4.70614e-05
103 *598:D *322:62 3.79549e-05
104 *600:A *460:A1 2.39679e-06
105 *7:10 *322:128 0
106 *15:10 *478:A1 1.87637e-06
107 *15:10 *322:45 2.89018e-05
108 *15:10 *322:62 8.83438e-05
109 *15:10 *322:104 1.87369e-06
110 *35:12 *564:A 1.87392e-05
111 *133:14 *555:A 2.75346e-06
112 *133:14 *322:128 0
113 *189:12 *564:A 4.32298e-05
114 *189:30 *322:104 1.08036e-06
115 *192:16 *559:A 4.17885e-06
116 *192:16 *564:A 9.87839e-06
117 *193:22 *478:A1 2.75346e-06
118 *193:22 *322:104 0.000109515
119 *275:18 *322:62 1.56073e-06
120 *277:20 *478:A1 1.91498e-06
121 *281:8 *322:85 6.82202e-07
122 *281:8 *322:128 9.61005e-05
123 *284:14 *460:A1 1.25189e-05
124 *293:11 *322:45 0
125 *303:12 *322:128 1.32323e-05
126 *305:19 *564:A 2.61812e-06
127 *305:32 *564:A 6.30863e-06
128 *305:51 *564:A 7.07811e-06
129 *306:15 *504:A1 2.30003e-05
130 *306:15 *322:9 2.95718e-06
131 *321:8 *564:A 2.66554e-06
*RES
1 rst *322:9 17.625 
2 *322:9 *504:A1 23.8571 
3 *322:9 *322:30 21.6429 
4 *322:30 *492:A1 5 
5 *322:30 *322:45 12.5357 
6 *322:45 *460:A1 14.75 
7 *322:45 *322:62 16.6786 
8 *322:62 *322:66 2.17857 
9 *322:66 *445:A1 21.8929 
10 *322:66 *322:85 2.25 
11 *322:85 *322:89 12.7143 
12 *322:89 *555:A 11.75 
13 *322:89 *322:104 24.8572 
14 *322:104 *478:A1 10.9286 
15 *322:104 *520:A 5 
16 *322:85 *322:128 38.4286 
17 *322:128 *335:A 28.6429 
18 *322:128 *322:149 26.5 
19 *322:149 *564:A 41.9643 
20 *322:149 *559:A 18.2857 
21 *322:62 *422:A1 5 
*END

*D_NET *323 0.00044874
*CONN
*P zero O
*I *591:Q O *D DFF_X1
*CAP
1 zero 0.000132212
2 *591:Q 0.000132212
3 *584:D zero 1.04526e-05
4 *188:22 zero 0
5 *290:7 zero 9.72385e-05
6 *292:15 zero 5.30018e-05
7 *309:21 zero 2.3624e-05
*RES
1 *591:Q zero 28.6607 
*END

*D_NET *324 0.00265424
*CONN
*I *604:A I *D CLKBUF_X3
*I *603:A I *D CLKBUF_X3
*I *602:A I *D CLKBUF_X3
*I *601:A I *D CLKBUF_X3
*I *600:Z O *D CLKBUF_X3
*CAP
1 *604:A 7.91127e-06
2 *603:A 0
3 *602:A 0
4 *601:A 1.8704e-05
5 *600:Z 0
6 *324:95 8.26162e-05
7 *324:93 0.000330913
8 *324:71 8.04032e-05
9 *324:69 0.000384994
10 *324:60 6.64527e-05
11 *324:53 5.00436e-05
12 *324:47 8.86799e-05
13 *324:38 7.77836e-05
14 *324:27 0.000396904
15 *324:6 0.000410138
16 *324:4 5.30153e-05
17 *601:A *325:53 1.04006e-05
18 *324:6 *326:14 1.07957e-05
19 *324:27 *574:CK 4.66157e-05
20 *324:27 *598:CK 2.18289e-05
21 *324:27 *325:53 1.57402e-05
22 *324:27 *326:14 4.72316e-06
23 *324:27 *326:42 1.11792e-06
24 *324:27 *326:46 0
25 *324:38 *326:14 6.12766e-06
26 *324:47 *594:CK 1.28122e-06
27 *324:47 *326:10 1.64901e-05
28 *324:47 *326:14 8.64288e-07
29 *324:53 *594:CK 1.28122e-06
30 *324:53 *326:10 1.36785e-06
31 *324:60 *594:CK 7.30645e-06
32 *324:69 *594:CK 1.92912e-05
33 *324:93 *327:23 0
34 *324:93 *328:55 6.47183e-05
35 *324:95 *328:16 0
36 overflow *324:69 0
37 overflow *324:71 0
38 *340:A1 *324:27 3.83453e-06
39 *340:A2 *324:27 2.55331e-06
40 *343:A *601:A 0
41 *345:A *324:27 0
42 *345:B *324:27 3.19164e-06
43 *354:B *324:95 4.32144e-07
44 *355:A *324:95 1.21774e-06
45 *355:B2 *324:95 5.52692e-06
46 *357:A1 *324:93 7.94125e-06
47 *445:A1 *324:60 1.19868e-05
48 *445:A2 *324:69 2.08098e-06
49 *460:A1 *324:6 2.61827e-06
50 *460:A1 *324:38 5.44903e-06
51 *521:A2 *324:71 3.20737e-05
52 *575:D *324:27 6.48216e-07
53 *577:D *324:93 0
54 *585:D *324:93 6.32461e-06
55 *597:D *324:69 1.59582e-06
56 *597:D *324:93 8.43215e-07
57 *598:D *324:27 2.73621e-05
58 *600:A *324:6 1.08193e-05
59 *43:10 *324:95 0
60 *44:8 *324:95 0
61 *45:14 *324:93 1.52083e-06
62 *189:30 *604:A 0
63 *189:30 *324:95 0
64 *218:12 *324:93 0
65 *221:18 *324:69 3.02296e-05
66 *221:18 *324:71 5.4684e-05
67 *246:8 *324:27 0
68 *277:10 *324:27 2.01398e-05
69 *279:14 *324:6 5.41909e-06
70 *279:14 *324:27 2.05033e-06
71 *281:8 *324:53 2.39679e-06
72 *281:8 *324:60 5.91873e-06
73 *281:8 *324:69 1.61446e-06
74 *281:8 *324:93 0
75 *284:14 *324:38 8.43215e-07
76 *284:14 *324:47 1.16194e-05
77 *293:11 *324:71 2.67512e-06
78 *299:23 *601:A 0
79 *299:23 *324:27 0
80 *300:10 *324:27 0
81 *303:12 *324:93 5.06772e-05
82 *303:20 *324:93 0
83 *304:29 *604:A 2.16827e-06
84 *304:29 *324:95 1.76008e-05
85 *304:37 *324:95 9.6515e-06
86 *309:15 *324:71 1.0323e-05
87 *312:13 *324:93 1.97008e-05
88 *319:8 *324:93 0
89 *322:62 *324:53 0
*RES
1 *600:Z *324:4 5 
2 *324:4 *324:6 4.46429 
3 *324:6 *324:27 46.6072 
4 *324:27 *601:A 7.25 
5 *324:4 *324:38 2.75 
6 *324:38 *324:47 6.82143 
7 *324:47 *324:53 3.64286 
8 *324:53 *602:A 5 
9 *324:53 *324:60 2.75 
10 *324:60 *324:69 11.5714 
11 *324:69 *324:71 10.4286 
12 *324:71 *603:A 10 
13 *324:69 *324:93 45.75 
14 *324:93 *324:95 8.60715 
15 *324:95 *604:A 5.89286 
*END

*D_NET *325 0.0014214
*CONN
*I *574:CK I *D DFF_X1
*I *573:CK I *D DFF_X1
*I *572:CK I *D DFF_X1
*I *581:CK I *D DFF_X1
*I *582:CK I *D DFF_X1
*I *583:CK I *D DFF_X1
*I *580:CK I *D DFF_X1
*I *605:A I *D INV_X1
*I *601:Z O *D CLKBUF_X3
*CAP
1 *574:CK 8.74821e-05
2 *573:CK 0
3 *572:CK 6.09358e-05
4 *581:CK 0
5 *582:CK 5.20656e-05
6 *583:CK 0
7 *580:CK 0
8 *605:A 0
9 *601:Z 2.46616e-05
10 *325:53 0.000191715
11 *325:28 8.26531e-05
12 *325:21 7.86379e-05
13 *325:14 0.000102921
14 *325:10 9.34174e-05
15 *325:8 0.000106505
16 *527:A2 *325:21 0
17 *572:D *572:CK 5.64171e-06
18 *572:D *325:8 1.78436e-06
19 *572:D *325:10 8.57169e-06
20 *573:D *325:10 1.0164e-05
21 *573:D *325:14 2.97137e-05
22 *573:D *325:53 7.34533e-06
23 *581:D *325:21 0
24 *601:A *325:53 1.04006e-05
25 *3:10 *572:CK 0.00010662
26 *298:8 *572:CK 4.30657e-05
27 *299:10 *325:8 1.62377e-05
28 *301:10 *574:CK 0
29 *301:10 *582:CK 0
30 *306:23 *582:CK 2.62285e-05
31 *306:23 *325:21 4.41389e-05
32 *306:23 *325:28 4.95623e-05
33 *315:14 *572:CK 0.000118577
34 *324:27 *574:CK 4.66157e-05
35 *324:27 *325:53 1.57402e-05
*RES
1 *601:Z *325:8 12.9643 
2 *325:8 *325:10 5 
3 *325:10 *325:14 12.0357 
4 *325:14 *605:A 5 
5 *325:14 *325:21 5.75 
6 *325:21 *580:CK 5 
7 *325:21 *325:28 4.75 
8 *325:28 *583:CK 5 
9 *325:28 *582:CK 11.6786 
10 *325:10 *581:CK 10 
11 *325:8 *325:53 10.75 
12 *325:53 *572:CK 26.7857 
13 *325:53 *573:CK 5 
14 *325:53 *574:CK 16.1786 
*END

*D_NET *326 0.00222112
*CONN
*I *606:A I *D CLKBUF_X1
*I *576:CK I *D DFF_X1
*I *598:CK I *D DFF_X1
*I *596:CK I *D DFF_X1
*I *584:CK I *D DFF_X1
*I *575:CK I *D DFF_X1
*I *571:CK I *D DFF_X1
*I *593:CK I *D DFF_X1
*I *591:CK I *D DFF_X1
*I *602:Z O *D CLKBUF_X3
*CAP
1 *606:A 0
2 *576:CK 3.37136e-05
3 *598:CK 3.73319e-05
4 *596:CK 0
5 *584:CK 0
6 *575:CK 6.67106e-05
7 *571:CK 1.8596e-05
8 *593:CK 0
9 *591:CK 7.33848e-05
10 *602:Z 5.0738e-05
11 *326:46 0.000128111
12 *326:42 0.000125766
13 *326:40 8.29612e-05
14 *326:20 0.000138288
15 *326:18 8.25458e-05
16 *326:16 6.13083e-05
17 *326:14 0.000131919
18 *326:10 0.00014261
19 result[1] *326:42 0
20 result[4] *326:14 1.87392e-05
21 *348:A3 *576:CK 0
22 *447:A3 *576:CK 0
23 *492:A2 *576:CK 0.000133405
24 *492:A2 *326:16 2.96955e-05
25 *492:A2 *326:18 6.70982e-05
26 *492:A2 *326:20 4.24402e-05
27 *523:A2 *591:CK 1.74833e-05
28 *523:A2 *326:20 1.045e-05
29 *524:A2 *326:42 0
30 *524:A2 *326:46 0
31 *527:A2 *591:CK 2.35353e-05
32 *567:A2 *591:CK 3.38384e-05
33 *570:D *326:14 0
34 *575:D *571:CK 5.62244e-05
35 *575:D *575:CK 0.000119869
36 *576:D *576:CK 2.99982e-05
37 *576:D *591:CK 2.30003e-05
38 *576:D *598:CK 0
39 *576:D *326:16 9.91569e-06
40 *576:D *326:18 2.26129e-05
41 *576:D *326:20 6.15429e-05
42 *593:D *591:CK 3.38052e-05
43 *595:D *326:14 0
44 *598:D *326:10 2.28245e-05
45 *598:D *326:42 5.10699e-05
46 *188:22 *591:CK 1.30565e-05
47 *277:10 *575:CK 0
48 *277:10 *326:42 1.91498e-06
49 *277:10 *326:46 9.57492e-06
50 *279:14 *326:20 3.20022e-05
51 *306:15 *591:CK 2.94455e-05
52 *306:15 *326:20 4.98557e-05
53 *308:25 *591:CK 1.73034e-05
54 *322:30 *326:42 1.15279e-05
55 *322:62 *326:10 8.15234e-06
56 *322:62 *326:14 2.39679e-06
57 *322:66 *326:10 1.04584e-06
58 *324:6 *326:14 1.07957e-05
59 *324:27 *598:CK 2.18289e-05
60 *324:27 *326:14 4.72316e-06
61 *324:27 *326:42 1.11792e-06
62 *324:27 *326:46 0
63 *324:38 *326:14 6.12766e-06
64 *324:47 *326:10 1.64901e-05
65 *324:47 *326:14 8.64288e-07
66 *324:53 *326:10 1.36785e-06
*RES
1 *602:Z *326:10 11.7857 
2 *326:10 *326:14 15.25 
3 *326:14 *326:16 1.60714 
4 *326:16 *326:18 3.64286 
5 *326:18 *326:20 11.7857 
6 *326:20 *591:CK 21.8571 
7 *326:20 *593:CK 10 
8 *326:18 *326:40 5 
9 *326:40 *326:42 10.25 
10 *326:42 *326:46 9.75 
11 *326:46 *571:CK 12.9643 
12 *326:46 *575:CK 19.0714 
13 *326:42 *584:CK 5 
14 *326:40 *596:CK 5 
15 *326:16 *598:CK 14.75 
16 *326:14 *576:CK 17.0357 
17 *326:10 *606:A 5 
*END

*D_NET *327 0.00234087
*CONN
*I *607:A I *D INV_X1
*I *592:CK I *D DFF_X1
*I *588:CK I *D DFF_X1
*I *599:CK I *D DFF_X1
*I *590:CK I *D DFF_X1
*I *597:CK I *D DFF_X1
*I *594:CK I *D DFF_X1
*I *569:CK I *D DFF_X1
*I *603:Z O *D CLKBUF_X3
*CAP
1 *607:A 9.7448e-06
2 *592:CK 9.35994e-05
3 *588:CK 1.64041e-05
4 *599:CK 0
5 *590:CK 9.36756e-05
6 *597:CK 0
7 *594:CK 9.35774e-05
8 *569:CK 0
9 *603:Z 3.23454e-05
10 *327:85 0.000114476
11 *327:72 3.40158e-05
12 *327:45 0.000150077
13 *327:23 0.000183523
14 *327:10 0.000130376
15 *327:6 0.000122698
16 overflow *594:CK 0
17 *445:A1 *594:CK 1.39417e-05
18 *445:A2 *594:CK 9.01644e-05
19 *521:A2 *327:85 2.89018e-05
20 *522:A2 *588:CK 3.38384e-05
21 *522:A2 *592:CK 8.0025e-05
22 *522:A2 *607:A 1.50966e-05
23 *522:A2 *327:6 3.93465e-06
24 *522:A2 *327:45 2.71691e-06
25 *522:A2 *327:72 1.25215e-05
26 *556:A *592:CK 7.72792e-06
27 *556:B *592:CK 2.71691e-06
28 *565:A2 *590:CK 2.79981e-06
29 *566:A2 *590:CK 2.17321e-05
30 *566:A2 *327:6 1.92088e-05
31 *566:A2 *327:45 3.64734e-05
32 *569:D *327:10 7.77137e-05
33 *577:D *327:10 0.000128655
34 *577:D *327:23 0.00014161
35 *579:D *590:CK 1.42872e-05
36 *585:D *327:10 0
37 *585:D *327:23 0
38 *592:D *592:CK 6.06412e-06
39 *593:D *592:CK 0
40 *594:D *594:CK 2.75346e-06
41 *597:D *594:CK 8.2465e-06
42 *598:D *594:CK 7.30645e-06
43 *218:18 *327:10 0
44 *218:43 *327:6 3.40142e-05
45 *218:43 *327:45 4.00561e-05
46 *221:18 *588:CK 3.43734e-05
47 *221:18 *594:CK 5.10087e-06
48 *221:18 *327:72 1.0303e-05
49 *234:10 *590:CK 2.32275e-05
50 *234:29 *590:CK 2.88302e-05
51 *234:29 *327:45 6.27971e-05
52 *278:14 *590:CK 0
53 *278:22 *592:CK 0.000140676
54 *278:22 *607:A 1.74934e-05
55 *281:8 *594:CK 1.32348e-05
56 *281:8 *327:23 6.06571e-05
57 *284:14 *594:CK 3.19164e-07
58 *293:11 *594:CK 0
59 *293:11 *327:85 4.92863e-06
60 *322:45 *594:CK 2.75346e-06
61 *324:47 *594:CK 1.28122e-06
62 *324:53 *594:CK 1.28122e-06
63 *324:60 *594:CK 7.30645e-06
64 *324:69 *594:CK 1.92912e-05
65 *324:93 *327:23 0
*RES
1 *603:Z *327:6 9.25 
2 *327:6 *327:10 12.0357 
3 *327:10 *569:CK 10 
4 *327:10 *327:23 18.4643 
5 *327:23 *594:CK 28.4643 
6 *327:23 *597:CK 5 
7 *327:6 *327:45 10.25 
8 *327:45 *590:CK 18.9643 
9 *327:45 *599:CK 5 
10 *603:Z *327:72 6.25 
11 *327:72 *588:CK 8.25 
12 *327:72 *327:85 11.6071 
13 *327:85 *592:CK 19.8571 
14 *327:85 *607:A 6.75 
*END

*D_NET *328 0.00199853
*CONN
*I *579:CK I *D DFF_X1
*I *578:CK I *D DFF_X1
*I *585:CK I *D DFF_X1
*I *587:CK I *D DFF_X1
*I *589:CK I *D DFF_X1
*I *586:CK I *D DFF_X1
*I *595:CK I *D DFF_X1
*I *570:CK I *D DFF_X1
*I *577:CK I *D DFF_X1
*I *604:Z O *D CLKBUF_X3
*CAP
1 *579:CK 5.04685e-05
2 *578:CK 0
3 *585:CK 0
4 *587:CK 8.71307e-06
5 *589:CK 6.43201e-05
6 *586:CK 0
7 *595:CK 0
8 *570:CK 5.35231e-05
9 *577:CK 1.79623e-05
10 *604:Z 4.1495e-05
11 *328:66 0.000126088
12 *328:59 0.000161141
13 *328:55 0.000163111
14 *328:35 0.000232371
15 *328:20 0.000245541
16 *328:16 0.000159197
17 *328:14 0.000111563
18 *328:8 0.000148085
19 result[5] *328:35 0
20 *336:A1 *328:20 0
21 *336:A2 *328:35 1.19839e-05
22 *337:A2 *570:CK 0
23 *337:A2 *328:35 0
24 *352:A *328:35 0
25 *353:A2 *579:CK 7.19036e-06
26 *353:A2 *328:8 1.2752e-06
27 *353:A2 *328:14 9.43297e-06
28 *354:B *328:8 4.33701e-06
29 *355:B2 *328:16 0
30 *505:A1 *579:CK 1.95807e-05
31 *505:A2 *579:CK 2.61827e-06
32 *528:A1 *328:59 0
33 *555:A *328:35 1.8031e-05
34 *570:D *570:CK 7.81367e-06
35 *579:D *579:CK 5.11574e-06
36 *587:D *328:66 8.24581e-06
37 *589:D *589:CK 4.26902e-05
38 *590:D *589:CK 0
39 *595:D *570:CK 9.62051e-07
40 *1:8 *579:CK 0
41 *7:10 *328:20 2.16072e-07
42 *7:10 *328:35 1.0239e-05
43 *42:10 *328:35 0
44 *43:10 *328:14 0
45 *43:10 *328:16 0
46 *133:14 *328:35 9.18014e-06
47 *189:12 *328:8 9.22998e-06
48 *218:12 *328:55 2.8372e-05
49 *221:18 *577:CK 0
50 *221:18 *328:35 0
51 *236:8 *328:35 0
52 *247:20 *328:35 0
53 *275:16 *328:59 0
54 *281:8 *589:CK 0
55 *281:8 *328:59 0
56 *281:8 *328:66 0
57 *303:12 *577:CK 7.14239e-06
58 *303:12 *328:20 0
59 *303:12 *328:35 1.04893e-05
60 *303:20 *328:20 0
61 *303:20 *328:35 2.38892e-05
62 *303:28 *328:35 1.61446e-06
63 *304:8 *328:8 1.72426e-05
64 *304:8 *328:14 5.48932e-05
65 *304:29 *328:8 3.84423e-05
66 *305:19 *328:8 0
67 *312:13 *328:59 0
68 *322:62 *328:35 0
69 *322:128 *589:CK 0
70 *322:128 *328:14 0
71 *322:128 *328:16 0
72 *322:128 *328:20 0
73 *324:93 *328:55 6.47183e-05
74 *324:95 *328:16 0
*RES
1 *604:Z *328:8 15.6786 
2 *328:8 *328:14 12.2143 
3 *328:14 *328:16 5.75 
4 *328:16 *328:20 9.75 
5 *328:20 *577:CK 12.2857 
6 *328:20 *328:35 25.0714 
7 *328:35 *570:CK 10.6786 
8 *328:35 *595:CK 5 
9 *328:16 *328:55 19.0714 
10 *328:55 *328:59 11.1786 
11 *328:59 *586:CK 5 
12 *328:59 *328:66 5.75 
13 *328:66 *589:CK 22.2857 
14 *328:66 *587:CK 5.92857 
15 *328:55 *585:CK 5 
16 *328:14 *578:CK 5 
17 *328:8 *579:CK 16.25 
*END
